
units           real
boundary p p p
atom_style      full

read_restart final_state_Relax_Es_15kT_Ens_0.5kT.restart
  restoring atom style full from restart
  orthogonal box = (-500 -500 -500) to (500 500 500)
  1 by 2 by 7 MPI processor grid
  restoring pair style lj/cut from restart
  restoring bond style hybrid from restart
  restoring angle style cosine from restart
  7000 atoms
  7290 bonds
  6600 angles
  3 = max # of 1-2 neighbors
  4 = max # of 1-3 neighbors
  8 = max # of 1-4 neighbors
  16 = max # of special neighbors
  special bonds CPU = 0.0016841 secs
  read_restart CPU = 0.0121987 secs

change_box all x final -500.0 500.0 y final -500.0 500.0 z final -500.0 500.0
  orthogonal box = (-500 -500 -500) to (500 500 500)
  orthogonal box = (-500 -500 -500) to (500 500 500)
  orthogonal box = (-500 -500 -500) to (500 500 500)

neighbor 1.9 bin
neigh_modify every 1 delay 1 check yes

angle_style  cosine
angle_coeff   *  2  # K (energy unit)

bond_style 		 hybrid harmonic harmonic/shift/cut
bond_coeff   1   harmonic 3   10
bond_coeff   2   harmonic 3   10
bond_coeff   3   harmonic/shift/cut 8.883   11.22   12.72


pair_style lj/cut 25

pair_coeff  * * 0.296 10 25

special_bonds lj  0 1 1 angle yes
  3 = max # of 1-2 neighbors
  4 = max # of 1-3 neighbors
  8 = max # of 1-4 neighbors
  17120 = # of 1-3 neighbors before angle trim
  13200 = # of 1-3 neighbors after angle trim
  16 = max # of special neighbors
  special bonds CPU = 0.00147133 secs

variable t equal step
variable steps equal 100000000
variable dt_thermo equal 1000000
variable dt_movie equal 10000000
variable dt_restart equal 10000000

group rxnSites type 1 3
1000 atoms in group rxnSites

# fix ID group-ID(atom-types) bond/create Nevery itype jtype Rmin bondtype (prob values = fraction seed) (iparam maxbond newType)
fix bondc rxnSites bond/create/random 20 1 3 12.72 3 prob 1 ${seed} iparam 1 1 jparam 1 3
fix bondc rxnSites bond/create/random 20 1 3 12.72 3 prob 1 94607 iparam 1 1 jparam 1 3

# fix ID group-ID bond/break Nevery bondtype Rmax keyword values ...
fix bondbr rxnSites bond/break 20 3 12.72 prob 1 ${seed}
fix bondbr rxnSites bond/break 20 3 12.72 prob 1 94607

variable frmbnd equal f_bondc[2]
variable brkbnd equal f_bondbr[2]
fix saveBond all print ${dt_thermo} "$t ${frmbnd} ${brkbnd}" file BondData_${fName}.dat screen no
fix saveBond all print 1000000 "$t ${frmbnd} ${brkbnd}" file BondData_${fName}.dat screen no
fix saveBond all print 1000000 "$t ${frmbnd} ${brkbnd}" file BondData_Run2_S15N05_rlx.dat screen no

thermo_style    custom step epair pe ke ebond eangle temp bonds
thermo          ${dt_thermo}
thermo          1000000
fix saveThermo all print ${dt_thermo} "$t $(temp) $(ke) $(pe) $(epair) $(ebond) $(eangle) $(bonds)" file Thermo_${fName}.dat title "# Steps Temp KinEng PotEng Epair Ebond Eangle Bonds" screen no
fix saveThermo all print 1000000 "$t $(temp) $(ke) $(pe) $(epair) $(ebond) $(eangle) $(bonds)" file Thermo_${fName}.dat title "# Steps Temp KinEng PotEng Epair Ebond Eangle Bonds" screen no
fix saveThermo all print 1000000 "$t $(temp) $(ke) $(pe) $(epair) $(ebond) $(eangle) $(bonds)" file Thermo_Run2_S15N05_rlx.dat title "# Steps Temp KinEng PotEng Epair Ebond Eangle Bonds" screen no

############################ Langevin Dynamics ###############################
fix fxlan all langevin $T $T 500 ${seed}
fix fxlan all langevin 310 $T 500 ${seed}
fix fxlan all langevin 310 310 500 ${seed}
fix fxlan all langevin 310 310 500 94607
fix fxnve all nve

comm_style tiled
fix fxbal all balance 1000 1.1 rcb # load balance for spatially heterogeneous system

timestep 30

dump coor all custom ${dt_movie} traj_${fName}.dump id type mol mass x y z xu yu zu
dump coor all custom 10000000 traj_${fName}.dump id type mol mass x y z xu yu zu
dump coor all custom 10000000 traj_Run2_S15N05_rlx.dump id type mol mass x y z xu yu zu

restart ${dt_restart} ${fName}_tp_*.restart
restart 10000000 ${fName}_tp_*.restart
restart 10000000 Run2_S15N05_rlx_tp_*.restart
run ${steps}
run 100000000
Neighbor list info ...
  update every 1 steps, delay 1 steps, check yes
  max neighbors/atom: 2000, page size: 100000
  master list distance cutoff = 26.9
  ghost atom cutoff = 26.9
  binsize = 13.45, bins = 75 75 75
  2 neighbor lists, perpetual/occasional/extra = 1 1 0
  (1) pair lj/cut, perpetual
      attributes: half, newton on
      pair build: half/bin/newton
      stencil: half/bin/3d/newton
      bin: standard
  (2) fix bond/create/random, occasional, copy from (1)
      attributes: half, newton on
      pair build: copy
      stencil: none
      bin: none
Per MPI rank memory allocation (min/avg/max) = 10.33 | 10.7 | 11.34 Mbytes
Step E_pair PotEng KinEng E_bond E_angle Temp Bonds 
300000000    -5023.524   -3066.1495    6451.2777    -2030.442    3987.8165     309.2256     7290 
301000000   -5070.4078   -3145.9721    6550.4064   -2079.0264    4003.4621    313.97708     7290 
302000000   -5193.4028   -3215.8799     6431.437   -2108.5167    4086.0396    308.27459     7290 
303000000   -4978.6653   -2977.3632    6504.2904   -2077.3134    4078.6155    311.76663     7290 
304000000   -5048.3963   -3125.6355     6374.536   -2156.3598    4079.1206    305.54718     7290 
305000000   -5017.7629    -3045.248    6458.9746   -2107.4899    4080.0049    309.59453     7290 
306000000   -4986.9803   -3000.2143    6590.8354   -2122.9962    4109.7622    315.91495     7290 
307000000   -5129.0803   -3097.7579    6595.1301   -2038.0301    4069.3525     316.1208     7290 
308000000   -4899.0269   -2993.9858    6458.5574   -2110.5528    4015.5939    309.57453     7290 
309000000   -5049.2217   -3141.5044    6421.2949   -2133.2734    4040.9908    307.78845     7290 
310000000   -5063.7172   -3152.5626    6437.5067   -2166.9782    4078.1328    308.56552     7290 
311000000   -5041.8691   -3085.6672    6535.6859   -2147.0515    4103.2534     313.2715     7290 
312000000   -5023.4721   -3115.3483    6420.8354   -2126.9055    4035.0293    307.76643     7290 
313000000   -4984.0399   -3019.1028    6493.8748   -2075.9291    4040.8663    311.26738     7290 
314000000   -5070.8536    -3072.617    6503.6531   -2091.0799    4089.3165    311.73608     7290 
315000000   -4976.9255   -2982.8338    6464.9439    -2093.675    4087.7668    309.88065     7290 
316000000   -5097.4933   -3117.5531    6440.0169   -2119.8258     4099.766    308.68584     7290 
317000000   -5082.9623   -3043.6832     6432.659   -2063.8623    4103.1414    308.33316     7290 
318000000   -5070.7224   -3121.6836    6510.7361   -2095.6436    4044.6824    312.07559     7290 
319000000   -5005.7782   -3074.1105    6402.3497   -2123.3326    4055.0003    306.88036     7290 
320000000   -4995.8598   -3162.0988    6502.7833   -2101.3808    3935.1418    311.69439     7290 
321000000   -4970.4046   -3062.4184    6532.8592   -2130.2109    4038.1971      313.136     7290 
322000000   -5024.9061   -3048.0945    6525.4678   -2059.8522    4036.6637    312.78172     7290 
323000000   -4995.6699   -3080.0657    6379.8613   -2144.3332    4059.9374    305.80244     7290 
324000000   -5075.8019   -3065.0685     6545.336   -2112.3063    4123.0397    313.73404     7290 
325000000   -5113.2055   -3199.5974    6528.9589   -2141.2085    4054.8166    312.94905     7290 
326000000   -5053.1634   -3138.4247    6481.8437   -2140.3786    4055.1173    310.69071     7290 
327000000   -5101.3605   -3163.2722     6520.433   -2119.7803    4057.8685    312.54038     7290 
328000000   -5060.3122   -3181.7281    6456.2004   -2105.9609    3984.5449    309.46156     7290 
329000000   -4988.5027   -2987.6248    6475.7693   -2081.2815    4082.1594    310.39954     7290 
330000000    -4903.811   -2921.2357    6541.1759   -2117.1191    4099.6944    313.53464     7290 
331000000   -4980.6734   -2878.7306    6559.4208   -2049.4572       4151.4    314.40917     7290 
332000000   -5007.5671   -3063.2263    6542.4754   -2098.8153    4043.1561    313.59693     7290 
333000000   -5000.6011   -3000.8111    6382.7853   -2105.7008    4105.4908    305.94259     7290 
334000000   -5003.8451   -2973.1045    6461.5539   -2003.6872    4034.4279    309.71817     7290 
335000000   -4999.1577   -3042.8114    6458.3681    -2094.304    4050.6504    309.56546     7290 
336000000   -5098.4926   -3160.2773    6493.3562   -2094.0858    4032.3012    311.24252     7290 
337000000   -5121.3936   -3165.8721    6412.0558   -2106.9263    4062.4478     307.3456     7290 
338000000    -4988.126   -3029.5054    6434.0086   -2083.8268    4042.4473    308.39785     7290 
339000000   -5016.2787   -2999.5612    6466.9913   -2066.7359    4083.4533    309.97879     7290 
340000000   -5114.0284   -3212.2904    6441.9636   -2103.4493    4005.1873    308.77916     7290 
341000000   -5058.0369   -3099.3946     6441.645   -2123.0662    4081.7085    308.76388     7290 
342000000   -5070.9856   -3240.0507    6450.0838     -2146.11     3977.045    309.16838     7290 
343000000   -5067.4275   -3072.2249    6384.7465   -2044.4286    4039.6311    306.03659     7290 
344000000   -5058.8841   -3176.6341    6598.9148   -2126.5307    4008.7807    316.30221     7290 
345000000   -4969.5565   -2968.8056    6624.8943   -1998.3322    3999.0831    317.54747     7290 
346000000   -5051.3416   -3110.5568    6465.9627   -2136.0002     4076.785    309.92949     7290 
347000000    -5075.292   -3117.7332    6450.2677   -2115.7627    4073.3215    309.17719     7290 
348000000   -5031.5569   -3090.8675    6557.3073   -2124.5681    4065.2574    314.30786     7290 
349000000   -5082.4737   -3094.3959    6440.7991   -2107.0711    4095.1489    308.72333     7290 
350000000    -5113.876   -2986.1586    6432.6718    -2036.336    4164.0534    308.33378     7290 
351000000   -5018.1547   -3066.5667    6495.0113   -2128.4372    4080.0252    311.32186     7291 
352000000   -5178.6293   -3164.9664    6483.3725   -2082.8139    4096.4769    310.76398     7291 
353000000   -5190.1069   -3259.3914    6539.2617   -2118.9189    4049.6344    313.44289     7291 
354000000   -5041.3416   -3107.3679    6417.5662   -2089.9697    4023.9433    307.60973     7290 
355000000   -5048.5686   -3115.8208    6608.7854   -2121.5418    4054.2896    316.77533     7291 
356000000   -5041.3394   -3068.5213    6447.8214    -2102.221    4075.0391    309.05993     7291 
357000000   -5094.7465   -3197.8123    6442.0931    -2141.129    4038.0633    308.78536     7291 
358000000   -5112.1961   -3137.8219    6469.3729   -2079.7242    4054.0984    310.09295     7291 
359000000   -5007.8209   -3119.5053    6498.8395   -2137.2461    4025.5617    311.50535     7291 
360000000   -5122.7194   -3181.9219     6487.359   -2070.2056    4011.0031    310.95507     7291 
361000000   -5194.0726   -3335.2023    6525.9963   -2174.3509    4033.2212    312.80705     7291 
362000000   -5022.2451   -3083.8185    6576.1432   -2098.3934      4036.82    315.21071     7291 
363000000   -5081.7866   -3084.7252    6397.9314   -2073.6896     4070.751    306.66858     7291 
364000000   -4973.3269   -2969.5505    6538.9946   -2092.6469    4096.4233    313.43009     7291 
365000000   -4963.1992   -2964.3078    6405.9004   -2087.6386    4086.5299    307.05056     7291 
366000000   -5074.6708   -3092.3066    6479.5837   -2157.2935    4139.6578    310.58238     7291 
367000000   -4976.1004   -3059.1022    6378.5029    -2122.378    4039.3761    305.73733     7291 
368000000     -5106.87   -3243.0418    6459.9514   -2157.5968    4021.4251    309.64135     7291 
369000000   -5159.7269   -3246.7538    6476.0896   -2119.2664    4032.2395     310.4149     7291 
370000000   -4998.6915   -3040.0376    6519.8844   -2113.5296    4072.1835    312.51409     7291 
371000000   -5100.0731   -3104.6591    6426.7399   -2052.9987    4048.4127    308.04945     7291 
372000000   -5080.4116   -3135.1374    6369.2381   -2122.0803    4067.3546    305.29324     7291 
373000000   -5143.8813   -3243.2708    6522.6475   -2150.9618    4051.5724    312.64653     7291 
374000000   -5049.0871   -3122.5889    6531.7115   -2099.1713    4025.6696    313.08099     7291 
375000000   -5091.7654   -3069.2234    6476.1808   -2110.5918    4133.1338    310.41927     7291 
376000000   -5098.0899   -3166.8451    6408.9166   -2079.7625    4011.0073    307.19513     7291 
377000000   -5141.1546   -3156.4422    6516.0991   -2102.0066     4086.719    312.33265     7291 
378000000   -5089.2823   -3173.6722    6408.7845    -2119.804    4035.4141     307.1888     7290 
379000000   -5099.4139   -3225.0436    6433.9947   -2111.6672    3986.0375    308.39718     7291 
380000000   -5112.5385    -3165.704    6502.4711    -2060.775    4007.6096    311.67943     7291 
381000000   -5094.2163   -3156.7907    6475.9482   -2122.0912    4059.5168    310.40812     7292 
382000000   -5190.7226   -3209.6342    6478.3887   -2104.3784    4085.4668     310.5251     7292 
383000000   -5088.8707   -3135.7071    6408.5337   -2100.2658    4053.4295    307.17678     7291 
384000000   -5101.1776   -3095.7875    6459.0209   -2072.3507    4077.7408    309.59675     7291 
385000000   -5057.2945   -3098.3633    6490.0411   -2085.1072    4044.0384    311.08363     7291 
386000000   -5014.0085   -3103.0673     6454.584   -2172.4586    4083.3998    309.38408     7292 
387000000   -5209.3991   -3177.6038    6588.9416   -2096.1767    4127.9721    315.82417     7291 
388000000   -5073.0591   -3036.7114    6540.4741   -2099.0426    4135.3904    313.50101     7292 
389000000   -5166.4915   -3197.9954    6516.0182   -2091.0289     4059.525    312.32877     7292 
390000000   -5080.2379   -3182.9882    6455.5852   -2115.7489    4012.9986    309.43207     7292 
391000000   -5061.0362   -3095.5637    6480.8486   -2104.2805    4069.7529    310.64301     7292 
392000000    -5047.078   -3078.7889    6457.3976   -2066.5069    4034.7959    309.51894     7292 
393000000   -5097.4991   -3086.0483    6426.2097    -2076.916    4088.3668    308.02403     7292 
394000000    -5028.157   -3107.1341    6475.7008   -2167.0802    4088.1031    310.39626     7292 
395000000   -5095.0811   -3223.9445    6464.4238   -2130.2373    4001.3739    309.85573     7292 
396000000   -5072.3959   -3130.2815    6416.9713   -2104.0203    4046.1348    307.58121     7292 
397000000   -5042.8773    -3056.104    6463.9995   -2128.9485    4115.7217    309.83539     7292 
398000000    -5011.254    -3012.691    6453.0392   -2110.3891     4108.952    309.31003     7292 
399000000   -5133.6492   -3098.9802    6568.9791   -2107.0215    4141.6905    314.86732     7292 
400000000   -5042.0324   -3105.5871    6435.3602   -2110.7898    4047.2351    308.46264     7292 
Loop time of 24033.3 on 14 procs for 100000000 steps with 7000 atoms

Performance: 10785.017 ns/day, 0.002 hours/ns, 4160.886 timesteps/s
99.5% CPU use with 14 MPI tasks x no OpenMP threads

MPI task timing breakdown:
Section |  min time  |  avg time  |  max time  |%varavg| %total
---------------------------------------------------------------
Pair    | 6069.1     | 7213.7     | 8099.5     | 652.0 | 30.02
Bond    | 1099.3     | 1113.4     | 1125.8     |  25.1 |  4.63
Neigh   | 4341.6     | 4363.5     | 4405.4     |  27.5 | 18.16
Comm    | 5669.8     | 6579.8     | 8026.9     | 806.8 | 27.38
Output  | 0.55843    | 0.55848    | 0.55864    |   0.0 |  0.00
Modify  | 3822.1     | 3862.9     | 3895.2     |  34.2 | 16.07
Other   |            | 899.5      |            |       |  3.74

Nlocal:    500 ave 525 max 473 min
Histogram: 3 0 1 1 1 3 0 1 2 2
Nghost:    843.214 ave 1052 max 660 min
Histogram: 5 0 0 2 0 1 1 0 3 2
Neighs:    9755 ave 11562 max 7789 min
Histogram: 1 1 1 3 0 2 2 0 2 2

Total # of neighbors = 136570
Ave neighs/atom = 19.51
Ave special neighs/atom = 7.17714
Neighbor list builds = 6122775
Dangerous builds = 0

write_restart final_state_${fName}.restart
write_restart final_state_Run2_S15N05_rlx.restart
write_data final_state_${fName}.DATA
write_data final_state_Run2_S15N05_rlx.DATA
Total wall time: 6:40:33
