
units           real
boundary p p p
atom_style      full

read_restart final_state_Relax_Es_15kT_Ens_0.5kT.restart
  restoring atom style full from restart
  orthogonal box = (-500 -500 -500) to (500 500 500)
  1 by 2 by 7 MPI processor grid
  restoring pair style lj/cut from restart
  restoring bond style hybrid from restart
  restoring angle style cosine from restart
  7000 atoms
  7290 bonds
  6600 angles
  3 = max # of 1-2 neighbors
  4 = max # of 1-3 neighbors
  8 = max # of 1-4 neighbors
  16 = max # of special neighbors
  special bonds CPU = 0.145597 secs
  read_restart CPU = 0.582899 secs

change_box all x final -500.0 500.0 y final -500.0 500.0 z final -500.0 500.0
  orthogonal box = (-500 -500 -500) to (500 500 500)
  orthogonal box = (-500 -500 -500) to (500 500 500)
  orthogonal box = (-500 -500 -500) to (500 500 500)

neighbor 1.9 bin
neigh_modify every 1 delay 1 check yes

angle_style  cosine
angle_coeff   *  2  # K (energy unit)

bond_style 		 hybrid harmonic harmonic/shift/cut
bond_coeff   1   harmonic 3   10
bond_coeff   2   harmonic 3   10
bond_coeff   3   harmonic/shift/cut 8.883   11.22   12.72


pair_style lj/cut 25

pair_coeff  * * 0.296 10 25

special_bonds lj  0 1 1 angle yes
  3 = max # of 1-2 neighbors
  4 = max # of 1-3 neighbors
  8 = max # of 1-4 neighbors
  17120 = # of 1-3 neighbors before angle trim
  13200 = # of 1-3 neighbors after angle trim
  16 = max # of special neighbors
  special bonds CPU = 0.00453816 secs

variable t equal step
variable steps equal 100000000
variable dt_thermo equal 1000000
variable dt_movie equal 10000000
variable dt_restart equal 10000000

group rxnSites type 1 3
1000 atoms in group rxnSites

# fix ID group-ID(atom-types) bond/create Nevery itype jtype Rmin bondtype (prob values = fraction seed) (iparam maxbond newType)
fix bondc rxnSites bond/create/random 20 1 3 12.72 3 prob 1 ${seed} iparam 1 1 jparam 1 3
fix bondc rxnSites bond/create/random 20 1 3 12.72 3 prob 1 927227 iparam 1 1 jparam 1 3

# fix ID group-ID bond/break Nevery bondtype Rmax keyword values ...
fix bondbr rxnSites bond/break 20 3 12.72 prob 1 ${seed}
fix bondbr rxnSites bond/break 20 3 12.72 prob 1 927227

variable frmbnd equal f_bondc[2]
variable brkbnd equal f_bondbr[2]
fix saveBond all print ${dt_thermo} "$t ${frmbnd} ${brkbnd}" file BondData_${fName}.dat screen no
fix saveBond all print 1000000 "$t ${frmbnd} ${brkbnd}" file BondData_${fName}.dat screen no
fix saveBond all print 1000000 "$t ${frmbnd} ${brkbnd}" file BondData_Run3_S15N05_rlx.dat screen no

thermo_style    custom step epair pe ke ebond eangle temp bonds
thermo          ${dt_thermo}
thermo          1000000
fix saveThermo all print ${dt_thermo} "$t $(temp) $(ke) $(pe) $(epair) $(ebond) $(eangle) $(bonds)" file Thermo_${fName}.dat title "# Steps Temp KinEng PotEng Epair Ebond Eangle Bonds" screen no
fix saveThermo all print 1000000 "$t $(temp) $(ke) $(pe) $(epair) $(ebond) $(eangle) $(bonds)" file Thermo_${fName}.dat title "# Steps Temp KinEng PotEng Epair Ebond Eangle Bonds" screen no
fix saveThermo all print 1000000 "$t $(temp) $(ke) $(pe) $(epair) $(ebond) $(eangle) $(bonds)" file Thermo_Run3_S15N05_rlx.dat title "# Steps Temp KinEng PotEng Epair Ebond Eangle Bonds" screen no

############################ Langevin Dynamics ###############################
fix fxlan all langevin $T $T 500 ${seed}
fix fxlan all langevin 310 $T 500 ${seed}
fix fxlan all langevin 310 310 500 ${seed}
fix fxlan all langevin 310 310 500 927227
fix fxnve all nve

comm_style tiled
fix fxbal all balance 1000 1.1 rcb # load balance for spatially heterogeneous system

timestep 30

dump coor all custom ${dt_movie} traj_${fName}.dump id type mol mass x y z xu yu zu
dump coor all custom 10000000 traj_${fName}.dump id type mol mass x y z xu yu zu
dump coor all custom 10000000 traj_Run3_S15N05_rlx.dump id type mol mass x y z xu yu zu

restart ${dt_restart} ${fName}_tp_*.restart
restart 10000000 ${fName}_tp_*.restart
restart 10000000 Run3_S15N05_rlx_tp_*.restart
run ${steps}
run 100000000
Neighbor list info ...
  update every 1 steps, delay 1 steps, check yes
  max neighbors/atom: 2000, page size: 100000
  master list distance cutoff = 26.9
  ghost atom cutoff = 26.9
  binsize = 13.45, bins = 75 75 75
  2 neighbor lists, perpetual/occasional/extra = 1 1 0
  (1) pair lj/cut, perpetual
      attributes: half, newton on
      pair build: half/bin/newton
      stencil: half/bin/3d/newton
      bin: standard
  (2) fix bond/create/random, occasional, copy from (1)
      attributes: half, newton on
      pair build: copy
      stencil: none
      bin: none
Per MPI rank memory allocation (min/avg/max) = 10.33 | 10.7 | 11.34 Mbytes
Step E_pair PotEng KinEng E_bond E_angle Temp Bonds 
300000000    -5023.524   -3066.1495    6451.2777    -2030.442    3987.8165     309.2256     7290 
301000000   -5084.4476   -3114.6221    6536.6499   -2101.8289    4071.6545     313.3177     7290 
302000000   -4965.8789   -3066.1175    6489.2473   -2149.5669    4049.3283    311.04558     7290 
303000000    -5116.376   -3209.2743    6450.2083   -2136.1107    4043.2124    309.17434     7290 
304000000   -5033.9277   -3126.1203    6402.2054   -2105.2672    4013.0746    306.87345     7289 
305000000    -5040.237   -3052.1943    6492.3963   -2081.0067    4069.0493    311.19652     7289 
306000000   -5194.7399   -3266.1952    6455.8988   -2104.8699    4033.4147     309.4471     7290 
307000000   -5115.0982   -3216.7317    6481.9293   -2110.4012    4008.7677     310.6948     7290 
308000000   -5197.5687   -3368.8897    6482.5344   -2173.2086    4001.8877    310.72381     7290 
309000000   -5120.6496   -3183.9778    6579.8738   -2142.7332     4079.405    315.38953     7290 
310000000   -5084.8523   -3135.7671    6379.8471   -2115.0683    4064.1534    305.80176     7290 
311000000   -4974.9536   -3141.1549    6452.6693   -2106.7271    3940.5258     309.2923     7290 
312000000   -5118.8907   -3211.8109    6435.4718   -2133.0135    4040.0933    308.46798     7290 
313000000   -5100.8727   -3089.4202    6493.8086   -2097.1656    4108.6181    311.26421     7290 
314000000   -4994.8902    -2991.243    6417.1672   -2072.3271    4075.9743     307.5906     7290 
315000000   -5166.7012    -3179.361    6409.2225   -2069.8254    4057.1657    307.20979     7290 
316000000    -5082.088   -3189.1148    6451.1373   -2141.8678    4034.8409    309.21887     7290 
317000000   -5017.6291   -2965.8255    6471.8976   -2081.9938    4133.7974    310.21396     7291 
318000000   -4938.4067   -3110.1836    6589.7817   -2169.7493    3997.9724    315.86444     7291 
319000000   -5021.9422   -3036.2498    6341.3137   -2041.4729    4027.1653    303.95475     7291 
320000000   -4975.5708   -2993.7165    6486.9143   -2083.6008    4065.4551    310.93375     7291 
321000000    -5085.163   -3136.1247    6475.9271     -2130.35    4079.3883    310.40711     7291 
322000000   -5046.1298   -3128.6055    6542.8292   -2132.3821    4049.9064    313.61389     7291 
323000000   -5004.5655    -3017.663     6394.436   -2106.4823    4093.3848    306.50104     7291 
324000000   -5069.3546   -2997.9517    6400.9034    -2011.355    4082.7579    306.81104     7291 
325000000   -5061.4326   -3079.3788    6405.1506   -2053.8519    4035.9057    307.01461     7291 
326000000   -5086.9997   -3183.4807     6463.447   -2156.0479    4059.5669    309.80891     7291 
327000000   -5013.2562   -2985.4438    6340.9302   -2062.5115    4090.3239    303.93638     7291 
328000000   -5061.3135   -3142.9516    6492.3168   -2107.0723    4025.4343    311.19271     7291 
329000000    -5119.157   -3168.7397    6450.1587   -2084.3827    4034.7999    309.17196     7291 
330000000   -4996.4504    -3170.667    6463.4673   -2163.8004    3989.5839    309.80988     7291 
331000000   -5030.7244   -3098.6194    6468.0954   -2095.0863    4027.1913    310.03172     7291 
332000000   -4900.3634   -2863.7843    6510.0546   -2082.4597    4119.0389    312.04292     7291 
333000000   -5160.2093   -3174.5859    6510.4285   -2090.6669    4076.2902    312.06084     7291 
334000000    -5074.923   -3186.3051    6407.7247   -2169.7458    4058.3637      307.138     7291 
335000000   -5090.2647   -3106.0997    6283.9046   -2074.2765    4058.4414      301.203     7291 
336000000   -5121.4047   -3139.0352    6428.0135   -2105.4813    4087.8509    308.11049     7291 
337000000   -5095.4207   -3052.3462    6516.8679   -2085.3188    4128.3933     312.3695     7291 
338000000   -5036.4153   -2974.9572    6381.7488    -2070.487    4131.9452    305.89291     7291 
339000000   -5182.4649   -3155.9362     6473.458   -2096.6803     4123.209    310.28876     7291 
340000000   -5125.0802   -3186.4223     6366.135   -2150.6138    4089.2716     305.1445     7291 
341000000   -4990.0092   -3161.5605    6423.4642   -2133.9236    3962.3723    307.89243     7291 
342000000   -5110.3752   -3149.7516    6498.0559    -2125.588    4086.2115    311.46779     7291 
343000000   -5074.8626   -3042.2184    6434.0379   -2099.1932    4131.8373    308.39925     7291 
344000000   -5064.3385   -3104.3667    6571.8927   -2102.9495    4062.9214    315.00697     7291 
345000000    -5031.303   -2976.8193    6447.2798   -2108.3533     4162.837    309.03397     7291 
346000000   -5091.0862   -3046.5989    6468.5339   -2094.0713    4138.5587    310.05273     7291 
347000000   -5090.6609   -3232.8753    6484.4892   -2155.4895     4013.275    310.81751     7291 
348000000   -5042.5432   -3093.4606    6461.5857   -2151.0525     4100.135    309.71969     7291 
349000000   -5076.6251   -3148.1733    6422.3033   -2144.6266    4073.0784    307.83679     7291 
350000000   -5071.9068    -3136.071    6416.8247   -2073.2313     4009.067    307.57419     7291 
351000000   -4944.6903   -2958.7657     6584.327   -2057.1198    4043.0443    315.60298     7291 
352000000   -5087.6165    -3178.494    6374.4056   -2116.3017    4025.4242    305.54093     7291 
353000000   -5004.7287   -3063.8795    6423.9072   -2071.9401    4012.7893    307.91366     7291 
354000000   -5125.2541   -3125.9066    6491.4686   -2092.6032    4091.9507    311.15205     7291 
355000000   -5062.6856   -3069.9133    6461.4838   -2134.2869    4127.0592     309.7148     7291 
356000000   -5058.4425   -3123.4029    6446.9625   -2118.7436    4053.7832    309.01876     7291 
357000000   -5081.8157   -3203.0744    6366.4405   -2140.5243    4019.2657    305.15914     7291 
358000000   -5110.6785   -3140.0972    6553.6118   -2076.8439    4047.4251    314.13073     7291 
359000000   -4958.1069   -3041.6515     6458.404   -2094.5211    4010.9765    309.56718     7291 
360000000   -5025.4202   -3045.2899    6431.9222     -2074.47    4054.6003    308.29785     7291 
361000000   -5006.8333   -3026.5021    6462.1812   -2072.0202    4052.3515    309.74823     7291 
362000000   -5031.3346   -3067.4706    6412.1399   -2072.3248    4036.1888    307.34963     7291 
363000000   -5096.6206   -3119.5201    6561.5908   -2123.4094    4100.5099    314.51318     7291 
364000000   -5055.7494   -3138.4677    6414.6248   -2107.0922    4024.3739    307.46874     7291 
365000000   -5120.7429   -3049.2583    6550.2415   -2079.6993    4151.1839    313.96918     7291 
366000000   -5095.7859   -3100.6945     6481.088   -2090.9321    4086.0236    310.65448     7291 
367000000   -5078.2881   -3080.3513    6531.8974   -2082.5066    4080.4435     313.0899     7291 
368000000   -5141.7641   -3229.5807    6486.4175   -2167.3936     4079.577    310.90994     7291 
369000000   -5137.3086   -3156.7267    6430.5547   -2082.2188    4062.8006     308.2323     7291 
370000000    -5080.226   -3177.9114    6453.5742   -2170.3454      4072.66    309.33568     7291 
371000000   -5094.8834   -3190.1698     6361.428   -2109.8505    4014.5642    304.91888     7291 
372000000   -5134.3371   -3190.6722    6507.0988   -2121.0925    4064.7574    311.90125     7291 
373000000   -5097.1026   -3233.1742    6336.4413   -2125.6114    3989.5398    303.72121     7291 
374000000   -5109.2077   -3157.9569    6500.3253   -2090.5098    4041.7606    311.57657     7291 
375000000   -5052.4525   -3116.3008    6455.1226   -2144.9247    4081.0764    309.40989     7291 
376000000   -5091.0643   -3064.3219    6536.5712   -2055.7893    4082.5318    313.31393     7291 
377000000   -5141.6046   -3265.7001    6465.3495   -2133.7449    4009.6494     309.9001     7291 
378000000   -5118.2262   -3004.8331    6473.1787   -2055.3574    4168.7506    310.27537     7291 
379000000   -5091.3668   -3221.1651    6465.7371   -2143.7793     4013.981    309.91867     7291 
380000000   -5148.1635   -3130.7473    6464.3018   -2059.9362    4077.3524    309.84988     7291 
381000000   -5040.1426   -3109.5484    6449.0599   -2108.7857    4039.3799     309.1193     7291 
382000000   -5159.9766   -3314.8619    6449.0717   -2113.1802    3958.2948    309.11986     7291 
383000000   -5156.4228     -3304.01    6412.5512   -2214.6938    4067.1066    307.36934     7291 
384000000   -5019.4892   -3091.5247    6462.6379   -2105.5079    4033.4724    309.77012     7291 
385000000   -5065.7534   -3088.3066    6457.6086   -2135.1597    4112.6064    309.52906     7291 
386000000    -5030.505   -2991.6073    6601.8465   -2010.5121    4049.4098    316.44273     7291 
387000000   -4993.3568   -2981.3752    6442.2579   -2061.7271    4073.7086    308.79326     7291 
388000000   -5087.5805   -3207.4923    6467.1928   -2168.2293    4048.3174    309.98845     7291 
389000000   -5009.3783   -3114.8276     6489.313   -2149.6742    4044.2249    311.04873     7291 
390000000   -5018.5592   -3045.0806    6452.2892   -2113.6268    4087.1054    309.27409     7291 
391000000   -5061.6536    -3043.736    6424.1695   -2123.7837    4141.7014    307.92624     7291 
392000000   -5067.0186   -3181.4931    6378.3035   -2128.5138    4014.0393    305.72777     7291 
393000000   -5113.3654   -3106.7956    6449.4837   -2076.5477    4083.1175    309.13961     7291 
394000000   -5063.9899   -3153.2846    6445.1603   -2153.3006     4064.006    308.93238     7291 
395000000   -5068.9485   -3096.4843    6535.2226   -2077.4605    4049.9246    313.24929     7291 
396000000   -5052.9442    -3158.403    6502.1628   -2142.2945    4036.8357    311.66465     7291 
397000000   -5001.3562   -3072.8122    6576.6435   -2099.3768    4027.9208    315.23469     7291 
398000000    -5086.203   -3098.6805    6532.0751   -2123.7959    4111.3184    313.09842     7291 
399000000   -5041.6715   -3055.1347    6484.3957   -2067.9149    4054.4517    310.81303     7291 
400000000   -5125.7942   -3116.1185    6389.5053   -2065.2526    4074.9284     306.2647     7291 
Loop time of 27057.1 on 14 procs for 100000000 steps with 7000 atoms

Performance: 9579.734 ns/day, 0.003 hours/ns, 3695.885 timesteps/s
99.6% CPU use with 14 MPI tasks x no OpenMP threads

MPI task timing breakdown:
Section |  min time  |  avg time  |  max time  |%varavg| %total
---------------------------------------------------------------
Pair    | 6007.6     | 7202.1     | 8144.8     | 632.4 | 26.62
Bond    | 1087.3     | 1109.6     | 1144.2     |  39.4 |  4.10
Neigh   | 4396.3     | 4428.3     | 4469.2     |  31.7 | 16.37
Comm    | 7109.7     | 8247.4     | 9945.4     | 815.3 | 30.48
Output  | 0.41319    | 0.41333    | 0.41362    |   0.0 |  0.00
Modify  | 4298.8     | 4350.9     | 4411.5     |  51.3 | 16.08
Other   |            | 1718       |            |       |  6.35

Nlocal:    500 ave 527 max 474 min
Histogram: 2 1 2 2 1 0 1 1 2 2
Nghost:    830.786 ave 1043 max 630 min
Histogram: 2 1 3 2 0 0 0 1 4 1
Neighs:    9883.57 ave 11497 max 8378 min
Histogram: 3 1 1 0 1 3 2 1 1 1

Total # of neighbors = 138370
Ave neighs/atom = 19.7671
Ave special neighs/atom = 7.15857
Neighbor list builds = 6122709
Dangerous builds = 0

write_restart final_state_${fName}.restart
write_restart final_state_Run3_S15N05_rlx.restart
write_data final_state_${fName}.DATA
write_data final_state_Run3_S15N05_rlx.DATA
Total wall time: 7:30:58
