
units           real
boundary p p p
atom_style      full

read_restart final_state_Relax_Es_15kT_Ens_0.5kT.restart
  restoring atom style full from restart
  orthogonal box = (-500 -500 -500) to (500 500 500)
  1 by 2 by 7 MPI processor grid
  restoring pair style lj/cut from restart
  restoring bond style hybrid from restart
  restoring angle style cosine from restart
  7000 atoms
  7290 bonds
  6600 angles
  3 = max # of 1-2 neighbors
  4 = max # of 1-3 neighbors
  8 = max # of 1-4 neighbors
  16 = max # of special neighbors
  special bonds CPU = 0.00385106 secs
  read_restart CPU = 0.183825 secs

change_box all x final -500.0 500.0 y final -500.0 500.0 z final -500.0 500.0
  orthogonal box = (-500 -500 -500) to (500 500 500)
  orthogonal box = (-500 -500 -500) to (500 500 500)
  orthogonal box = (-500 -500 -500) to (500 500 500)

neighbor 1.9 bin
neigh_modify every 1 delay 1 check yes

angle_style  cosine
angle_coeff   *  2  # K (energy unit)

bond_style 		 hybrid harmonic harmonic/shift/cut
bond_coeff   1   harmonic 3   10
bond_coeff   2   harmonic 3   10
bond_coeff   3   harmonic/shift/cut 8.883   11.22   12.72


pair_style lj/cut 25

pair_coeff  * * 0.296 10 25

special_bonds lj  0 1 1 angle yes
  3 = max # of 1-2 neighbors
  4 = max # of 1-3 neighbors
  8 = max # of 1-4 neighbors
  17120 = # of 1-3 neighbors before angle trim
  13200 = # of 1-3 neighbors after angle trim
  16 = max # of special neighbors
  special bonds CPU = 0.00238218 secs

variable t equal step
variable steps equal 100000000
variable dt_thermo equal 1000000
variable dt_movie equal 10000000
variable dt_restart equal 10000000

group rxnSites type 1 3
1000 atoms in group rxnSites

# fix ID group-ID(atom-types) bond/create Nevery itype jtype Rmin bondtype (prob values = fraction seed) (iparam maxbond newType)
fix bondc rxnSites bond/create/random 20 1 3 12.72 3 prob 1 ${seed} iparam 1 1 jparam 1 3
fix bondc rxnSites bond/create/random 20 1 3 12.72 3 prob 1 837104 iparam 1 1 jparam 1 3

# fix ID group-ID bond/break Nevery bondtype Rmax keyword values ...
fix bondbr rxnSites bond/break 20 3 12.72 prob 1 ${seed}
fix bondbr rxnSites bond/break 20 3 12.72 prob 1 837104

variable frmbnd equal f_bondc[2]
variable brkbnd equal f_bondbr[2]
fix saveBond all print ${dt_thermo} "$t ${frmbnd} ${brkbnd}" file BondData_${fName}.dat screen no
fix saveBond all print 1000000 "$t ${frmbnd} ${brkbnd}" file BondData_${fName}.dat screen no
fix saveBond all print 1000000 "$t ${frmbnd} ${brkbnd}" file BondData_Run4_S15N05_rlx.dat screen no

thermo_style    custom step epair pe ke ebond eangle temp bonds
thermo          ${dt_thermo}
thermo          1000000
fix saveThermo all print ${dt_thermo} "$t $(temp) $(ke) $(pe) $(epair) $(ebond) $(eangle) $(bonds)" file Thermo_${fName}.dat title "# Steps Temp KinEng PotEng Epair Ebond Eangle Bonds" screen no
fix saveThermo all print 1000000 "$t $(temp) $(ke) $(pe) $(epair) $(ebond) $(eangle) $(bonds)" file Thermo_${fName}.dat title "# Steps Temp KinEng PotEng Epair Ebond Eangle Bonds" screen no
fix saveThermo all print 1000000 "$t $(temp) $(ke) $(pe) $(epair) $(ebond) $(eangle) $(bonds)" file Thermo_Run4_S15N05_rlx.dat title "# Steps Temp KinEng PotEng Epair Ebond Eangle Bonds" screen no

############################ Langevin Dynamics ###############################
fix fxlan all langevin $T $T 500 ${seed}
fix fxlan all langevin 310 $T 500 ${seed}
fix fxlan all langevin 310 310 500 ${seed}
fix fxlan all langevin 310 310 500 837104
fix fxnve all nve

comm_style tiled
fix fxbal all balance 1000 1.1 rcb # load balance for spatially heterogeneous system

timestep 30

dump coor all custom ${dt_movie} traj_${fName}.dump id type mol mass x y z xu yu zu
dump coor all custom 10000000 traj_${fName}.dump id type mol mass x y z xu yu zu
dump coor all custom 10000000 traj_Run4_S15N05_rlx.dump id type mol mass x y z xu yu zu

restart ${dt_restart} ${fName}_tp_*.restart
restart 10000000 ${fName}_tp_*.restart
restart 10000000 Run4_S15N05_rlx_tp_*.restart
run ${steps}
run 100000000
Neighbor list info ...
  update every 1 steps, delay 1 steps, check yes
  max neighbors/atom: 2000, page size: 100000
  master list distance cutoff = 26.9
  ghost atom cutoff = 26.9
  binsize = 13.45, bins = 75 75 75
  2 neighbor lists, perpetual/occasional/extra = 1 1 0
  (1) pair lj/cut, perpetual
      attributes: half, newton on
      pair build: half/bin/newton
      stencil: half/bin/3d/newton
      bin: standard
  (2) fix bond/create/random, occasional, copy from (1)
      attributes: half, newton on
      pair build: copy
      stencil: none
      bin: none
Per MPI rank memory allocation (min/avg/max) = 10.33 | 10.7 | 11.34 Mbytes
Step E_pair PotEng KinEng E_bond E_angle Temp Bonds 
300000000    -5023.524   -3066.1495    6451.2777    -2030.442    3987.8165     309.2256     7290 
301000000   -5037.4691   -3015.2161     6388.282   -2059.5298    4081.7828    306.20606     7290 
302000000   -5176.2303   -3088.6738    6557.3889   -2043.6485     4131.205    314.31177     7290 
303000000   -5051.9017   -3106.6706    6449.9347   -2136.7365    4081.9676    309.16123     7290 
304000000   -5023.7094   -3066.4597    6463.4691   -2096.9396    4054.1893    309.80997     7290 
305000000   -5058.1788   -3185.2202    6501.5227   -2186.2183    4059.1769    311.63397     7290 
306000000   -4999.2263   -3044.7014     6558.861   -2146.8234    4101.3483    314.38233     7290 
307000000   -4949.0504   -3017.6805    6518.2215   -2114.8696    4046.2396    312.43438     7290 
308000000   -5028.2395   -3003.7113    6452.6881   -2078.0699    4102.5982     309.2932     7290 
309000000   -5061.6018   -3030.5333    6378.9254   -2101.5205     4132.589    305.75758     7290 
310000000   -5064.8045   -3165.1415    6487.6037   -2119.4059     4019.069    310.96679     7290 
311000000    -5106.424   -3204.2192    6536.3966    -2133.605    4035.8097    313.30556     7290 
312000000   -5126.9496   -3106.0441    6393.5304    -2108.963    4129.8685    306.45763     7290 
313000000    -5058.377   -3085.4863    6399.9697   -2146.8529    4119.7436    306.76628     7290 
314000000   -5214.0477   -3219.0816    6414.8629   -2086.2019    4081.1679    307.48015     7290 
315000000   -4965.2995   -3037.3999    6454.6969   -2144.3574     4072.257    309.38949     7290 
316000000   -5041.7925   -3054.9072    6357.7179   -2060.7748    4047.6601    304.74105     7290 
317000000   -5030.1514   -3055.0759    6450.1757   -2117.4389    4092.5143    309.17278     7290 
318000000   -5079.1253   -3049.5478    6488.4181   -2111.4153    4140.9928    311.00583     7290 
319000000   -4880.9015   -2993.7611    6406.5064   -2115.9567    4003.0971     307.0796     7290 
320000000   -5049.4614   -3122.3092     6359.873   -2112.5829    4039.7352    304.84435     7290 
321000000   -5004.8311   -3108.5325    6601.0901   -2139.4095    4035.7081    316.40648     7291 
322000000   -4959.7038   -3036.4528    6432.6795   -2123.7797    4047.0307    308.33414     7291 
323000000    -5066.895    -3170.037    6613.5028   -2149.8379    4046.6959    317.00145     7291 
324000000   -5031.6366   -2974.8798    6453.8747   -2063.0736    4119.8304    309.35008     7291 
325000000   -5146.2699   -3194.3361    6488.6647   -2144.2451     4096.179    311.01765     7290 
326000000   -5123.9434   -3198.4598    6411.6799   -2128.4934    4053.9771    307.32758     7290 
327000000   -5110.4422   -3166.5258    6480.3099   -2089.9207    4033.8371    310.61719     7290 
328000000   -4954.9409   -2960.0362    6572.3405   -2082.9522    4077.8569    315.02844     7290 
329000000   -5118.5896   -3133.3018    6426.6298   -2106.1812    4091.4691    308.04417     7290 
330000000   -5123.3236    -3089.054    6471.6784   -2094.5212    4128.7907    310.20346     7290 
331000000   -5132.3248   -3227.4356    6419.6849   -2154.1188     4059.008    307.71128     7290 
332000000   -5121.5108   -3177.0705     6474.347   -2118.7242    4063.1646    310.33137     7290 
333000000    -5083.435   -3273.1598    6488.1812   -2183.5938     3993.869    310.99448     7290 
334000000   -5062.4212    -3146.763    6464.9796   -2082.2483    3997.9065    309.88237     7290 
335000000   -5113.0706   -3169.5413    6509.4555   -2107.0288     4050.558     312.0142     7290 
336000000   -5161.2854   -3155.6676    6448.6409   -2068.0834    4073.7012    309.09921     7290 
337000000   -5041.3643    -3105.123    6389.2999   -2088.8663    4025.1077    306.25485     7290 
338000000   -4943.3479   -2924.4338    6460.8832   -2105.2138    4124.1278    309.68602     7291 
339000000   -5180.8525   -3237.5815    6410.9063   -2059.4801    4002.7512     307.2905     7291 
340000000   -5179.2445   -3172.3698    6391.6467   -2153.6114     4160.486    306.36734     7291 
341000000    -5014.443   -3052.4383    6383.6733   -2117.5717    4079.5765    305.98516     7291 
342000000   -5003.0054   -3097.0631    6501.9351   -2112.4898    4018.4321    311.65373     7291 
343000000   -4994.4553   -2951.0892    6616.6373    -2054.232    4097.5981    317.15169     7291 
344000000   -5083.2619   -3202.6031    6625.4402   -2171.7247    4052.3835    317.57364     7291 
345000000   -5177.4063   -3233.2499    6468.0372   -2132.3327    4076.4891    310.02893     7291 
346000000   -5093.7169   -3083.0424    6473.8319   -2104.7834    4115.4579    310.30668     7291 
347000000   -5171.2979   -3184.9121    6526.4958    -2102.174    4088.5597    312.83099     7291 
348000000    -4934.692   -2970.7118    6540.7004     -2099.35    4063.3302    313.51185     7291 
349000000   -5022.0314   -3032.5037    6424.4046    -2042.831    4032.3586    307.93751     7291 
350000000   -5051.7476   -3125.8804    6387.2112   -2126.5125    4052.3797    306.15473     7291 
351000000   -5032.0649   -3080.6436    6500.7439   -2167.8059    4119.2271    311.59664     7291 
352000000   -4990.3481   -2998.6612     6359.636   -2073.9471     4065.634    304.83299     7291 
353000000   -5095.2907   -3156.1367    6379.7124   -2110.2457    4049.3997     305.7953     7291 
354000000   -5025.2525   -3012.1382    6528.8496   -2114.6388    4127.7531    312.94381     7291 
355000000   -5087.4391   -3070.5012    6488.2739   -2105.1277    4122.0657    310.99892     7291 
356000000    -5069.083   -3129.0023    6555.1126   -2121.7393      4061.82    314.20266     7291 
357000000   -5071.4856   -3177.9161    6369.4564   -2076.2504      3969.82     305.3037     7290 
358000000   -5040.3054   -3121.4658      6471.37   -2072.2062    3991.0457    310.18867     7291 
359000000   -5063.5618   -3115.6238    6440.9459   -2102.0346    4049.9726    308.73037     7291 
360000000   -5033.8827   -3089.0924    6432.0748   -2106.9868    4051.7771    308.30516     7291 
361000000   -5110.9723   -3183.4897    6557.2144   -2102.5954    4030.0781    314.30341     7291 
362000000   -5113.0613   -3141.3715    6349.9354   -2095.6001    4067.2898    304.36801     7291 
363000000   -5014.5265   -3029.8879    6546.9389   -2081.9302    4066.5687    313.81088     7291 
364000000   -5063.4405   -3066.3838    6560.4673   -2101.8326    4098.8893    314.45933     7292 
365000000   -4965.8776   -3004.1005    6537.3297   -2097.9769    4059.7541    313.35028     7292 
366000000   -4983.3311   -3088.0055    6414.1337   -2104.8656    4000.1912     307.4452     7292 
367000000   -5092.3823    -3086.931    6474.2531   -2089.6261    4095.0775    310.32687     7292 
368000000   -5001.7387   -3057.2145    6397.9143   -2102.8789    4047.4031    306.66776     7292 
369000000   -5164.7047   -3135.1306    6407.5772   -2065.9934    4095.5676    307.13093     7292 
370000000   -5037.9494   -3203.8435    6533.1494   -2165.0766    3999.1825    313.14991     7292 
371000000   -5118.3983   -3163.0587     6543.162   -2142.2257    4097.5652    313.62984     7292 
372000000   -5031.8978   -3064.9142    6494.7416   -2102.3177    4069.3014    311.30893     7292 
373000000   -5103.1372   -3167.1554    6478.6515   -2119.8949    4055.8766    310.53769     7292 
374000000   -5108.5631   -3100.2695    6515.0955   -2111.7603    4120.0538    312.28454     7292 
375000000   -5142.9654   -3215.3864    6453.7823   -2107.7854    4035.3644    309.34565     7292 
376000000   -4966.5056   -2930.3983    6555.9432   -2019.1043    4055.2116    314.24247     7292 
377000000   -4988.3706   -2977.2977    6527.2602   -2053.4076    4064.4806    312.86763     7292 
378000000   -5081.0603   -3180.2638    6361.4352    -2151.986    4052.7825    304.91923     7292 
379000000    -5002.675   -3037.4833    6346.0532   -2127.4258    4092.6174    304.18193     7292 
380000000   -5162.0848   -3169.1561    6373.4776   -2118.5678    4111.4965    305.49645     7292 
381000000    -5160.499   -3263.0339    6457.0414   -2132.4787    4029.9438    309.50187     7292 
382000000   -5064.1118    -3083.946    6475.3841   -2099.8186    4079.9844    310.38108     7292 
383000000   -5034.9914   -3033.2678    6444.6034   -2122.8359    4124.5595    308.90568     7292 
384000000   -5065.7919   -3084.2691    6443.1326   -2126.5609    4108.0837    308.83518     7292 
385000000   -5061.3357   -3163.0112    6515.9052   -2159.3861    4057.7107    312.32335     7292 
386000000   -5041.7106   -3105.2422    6430.5545   -2125.8321    4062.3004    308.23228     7292 
387000000   -5036.3803   -3062.4627     6477.247   -2086.3802    4060.2978    310.47037     7292 
388000000   -4979.4403   -3016.0235    6459.6107   -2120.9644    4084.3812    309.62502     7292 
389000000   -5160.3514   -3229.4778    6407.8667   -2085.6015    4016.4751     307.1448     7292 
390000000   -5174.4078   -3173.1079    6532.8622   -2067.1322    4068.4321    313.13614     7292 
391000000   -5081.6558   -3173.0119    6494.2039   -2156.7379    4065.3818    311.28316     7292 
392000000   -5145.2249   -3209.4413    6377.0554   -2113.8484     4049.632    305.66794     7292 
393000000   -4928.0655   -2970.9885    6562.9328   -2078.2517    4035.3287    314.57751     7292 
394000000     -5008.64    -3105.661    6606.1991   -2099.5038    4002.4828    316.65136     7292 
395000000   -5094.6925   -3173.3414    6404.5451   -2116.8158    4038.1669    306.98559     7292 
396000000   -5035.1104   -3155.4861    6407.5834   -2131.2198    4010.8441    307.13123     7292 
397000000   -5108.2806   -3113.8518    6405.2244   -2113.0711    4107.4999    307.01815     7291 
398000000   -5017.3267   -3121.3843    6625.4312   -2145.2708    4041.2132     317.5732     7292 
399000000   -4996.5085   -3046.7427    6358.2227   -2113.2153    4062.9811    304.76524     7292 
400000000    -5113.594   -3134.2391    6484.2733   -2099.7272    4079.0821    310.80716     7292 
Loop time of 26747.8 on 14 procs for 100000000 steps with 7000 atoms

Performance: 9690.511 ns/day, 0.002 hours/ns, 3738.623 timesteps/s
99.6% CPU use with 14 MPI tasks x no OpenMP threads

MPI task timing breakdown:
Section |  min time  |  avg time  |  max time  |%varavg| %total
---------------------------------------------------------------
Pair    | 6025.6     | 7164.1     | 8122       | 730.8 | 26.78
Bond    | 1071       | 1108.9     | 1177.3     |  91.8 |  4.15
Neigh   | 4502.1     | 4523.7     | 4565.9     |  27.6 | 16.91
Comm    | 6697.7     | 8130.4     | 9731.6     | 897.7 | 30.40
Output  | 0.43362    | 0.43375    | 0.43392    |   0.0 |  0.00
Modify  | 4219.7     | 4278.3     | 4433.5     |  82.2 | 16.00
Other   |            | 1542       |            |       |  5.76

Nlocal:    500 ave 534 max 483 min
Histogram: 5 2 1 0 2 2 0 0 0 2
Nghost:    826.571 ave 1074 max 674 min
Histogram: 4 2 1 1 0 1 1 3 0 1
Neighs:    9835.07 ave 10973 max 8381 min
Histogram: 1 2 0 3 0 1 0 2 3 2

Total # of neighbors = 137691
Ave neighs/atom = 19.6701
Ave special neighs/atom = 7.21543
Neighbor list builds = 6122863
Dangerous builds = 0

write_restart final_state_${fName}.restart
write_restart final_state_Run4_S15N05_rlx.restart
write_data final_state_${fName}.DATA
write_data final_state_Run4_S15N05_rlx.DATA
Total wall time: 7:25:48
