
units           real
boundary p p p
atom_style      full

read_restart final_state_Relax_Es_15kT_Ens_0.5kT.restart
  restoring atom style full from restart
  orthogonal box = (-500 -500 -500) to (500 500 500)
  1 by 2 by 7 MPI processor grid
  restoring pair style lj/cut from restart
  restoring bond style hybrid from restart
  restoring angle style cosine from restart
  7000 atoms
  7290 bonds
  6600 angles
  3 = max # of 1-2 neighbors
  4 = max # of 1-3 neighbors
  8 = max # of 1-4 neighbors
  16 = max # of special neighbors
  special bonds CPU = 0.27148 secs
  read_restart CPU = 0.564099 secs

change_box all x final -500.0 500.0 y final -500.0 500.0 z final -500.0 500.0
  orthogonal box = (-500 -500 -500) to (500 500 500)
  orthogonal box = (-500 -500 -500) to (500 500 500)
  orthogonal box = (-500 -500 -500) to (500 500 500)

neighbor 1.9 bin
neigh_modify every 1 delay 1 check yes

angle_style  cosine
angle_coeff   *  2  # K (energy unit)

bond_style 		 hybrid harmonic harmonic/shift/cut
bond_coeff   1   harmonic 3   10
bond_coeff   2   harmonic 3   10
bond_coeff   3   harmonic/shift/cut 8.883   11.22   12.72


pair_style lj/cut 25

pair_coeff  * * 0.296 10 25

special_bonds lj  0 1 1 angle yes
  3 = max # of 1-2 neighbors
  4 = max # of 1-3 neighbors
  8 = max # of 1-4 neighbors
  17120 = # of 1-3 neighbors before angle trim
  13200 = # of 1-3 neighbors after angle trim
  16 = max # of special neighbors
  special bonds CPU = 0.00201199 secs

variable t equal step
variable steps equal 100000000
variable dt_thermo equal 1000000
variable dt_movie equal 10000000
variable dt_restart equal 10000000

group rxnSites type 1 3
1000 atoms in group rxnSites

# fix ID group-ID(atom-types) bond/create Nevery itype jtype Rmin bondtype (prob values = fraction seed) (iparam maxbond newType)
fix bondc rxnSites bond/create/random 20 1 3 12.72 3 prob 1 ${seed} iparam 1 1 jparam 1 3
fix bondc rxnSites bond/create/random 20 1 3 12.72 3 prob 1 221931 iparam 1 1 jparam 1 3

# fix ID group-ID bond/break Nevery bondtype Rmax keyword values ...
fix bondbr rxnSites bond/break 20 3 12.72 prob 1 ${seed}
fix bondbr rxnSites bond/break 20 3 12.72 prob 1 221931

variable frmbnd equal f_bondc[2]
variable brkbnd equal f_bondbr[2]
fix saveBond all print ${dt_thermo} "$t ${frmbnd} ${brkbnd}" file BondData_${fName}.dat screen no
fix saveBond all print 1000000 "$t ${frmbnd} ${brkbnd}" file BondData_${fName}.dat screen no
fix saveBond all print 1000000 "$t ${frmbnd} ${brkbnd}" file BondData_Run6_S15N05_rlx.dat screen no

thermo_style    custom step epair pe ke ebond eangle temp bonds
thermo          ${dt_thermo}
thermo          1000000
fix saveThermo all print ${dt_thermo} "$t $(temp) $(ke) $(pe) $(epair) $(ebond) $(eangle) $(bonds)" file Thermo_${fName}.dat title "# Steps Temp KinEng PotEng Epair Ebond Eangle Bonds" screen no
fix saveThermo all print 1000000 "$t $(temp) $(ke) $(pe) $(epair) $(ebond) $(eangle) $(bonds)" file Thermo_${fName}.dat title "# Steps Temp KinEng PotEng Epair Ebond Eangle Bonds" screen no
fix saveThermo all print 1000000 "$t $(temp) $(ke) $(pe) $(epair) $(ebond) $(eangle) $(bonds)" file Thermo_Run6_S15N05_rlx.dat title "# Steps Temp KinEng PotEng Epair Ebond Eangle Bonds" screen no

############################ Langevin Dynamics ###############################
fix fxlan all langevin $T $T 500 ${seed}
fix fxlan all langevin 310 $T 500 ${seed}
fix fxlan all langevin 310 310 500 ${seed}
fix fxlan all langevin 310 310 500 221931
fix fxnve all nve

comm_style tiled
fix fxbal all balance 1000 1.1 rcb # load balance for spatially heterogeneous system

timestep 30

dump coor all custom ${dt_movie} traj_${fName}.dump id type mol mass x y z xu yu zu
dump coor all custom 10000000 traj_${fName}.dump id type mol mass x y z xu yu zu
dump coor all custom 10000000 traj_Run6_S15N05_rlx.dump id type mol mass x y z xu yu zu

restart ${dt_restart} ${fName}_tp_*.restart
restart 10000000 ${fName}_tp_*.restart
restart 10000000 Run6_S15N05_rlx_tp_*.restart
run ${steps}
run 100000000
Neighbor list info ...
  update every 1 steps, delay 1 steps, check yes
  max neighbors/atom: 2000, page size: 100000
  master list distance cutoff = 26.9
  ghost atom cutoff = 26.9
  binsize = 13.45, bins = 75 75 75
  2 neighbor lists, perpetual/occasional/extra = 1 1 0
  (1) pair lj/cut, perpetual
      attributes: half, newton on
      pair build: half/bin/newton
      stencil: half/bin/3d/newton
      bin: standard
  (2) fix bond/create/random, occasional, copy from (1)
      attributes: half, newton on
      pair build: copy
      stencil: none
      bin: none
Per MPI rank memory allocation (min/avg/max) = 10.33 | 10.7 | 11.34 Mbytes
Step E_pair PotEng KinEng E_bond E_angle Temp Bonds 
300000000    -5023.524   -3066.1495    6451.2777    -2030.442    3987.8165     309.2256     7290 
301000000   -5127.7588   -3206.7877    6503.6265   -2111.2727    4032.2438    311.73481     7290 
302000000    -5068.013   -3053.1424    6393.5335   -2062.3232    4077.1939    306.45778     7289 
303000000   -5092.6271   -3151.7712    6419.6254   -2090.2018    4031.0577    307.70843     7290 
304000000   -4998.3435   -2969.3872    6441.1454   -2087.5811    4116.5374    308.73993     7290 
305000000   -5001.5547   -2962.6237    6359.0947   -2115.8958    4154.8268    304.80704     7290 
306000000    -5058.438    -3082.314    6405.4337   -2097.5408    4073.6648    307.02819     7290 
307000000   -5107.2892   -3144.9179    6536.0687   -2099.0842    4061.4555    313.28984     7290 
308000000   -5020.1569   -3095.4825    6487.1452   -2077.3756      4002.05    310.94482     7290 
309000000   -5046.8554   -3094.6142     6460.874   -2132.7331    4084.9742    309.68557     7290 
310000000    -5013.236   -3071.8822     6505.028   -2111.9354    4053.2892    311.80198     7290 
311000000   -5073.0709   -3032.6801    6516.8071   -2087.1825    4127.5733    312.36658     7290 
312000000   -5075.6484   -3205.3643     6392.212   -2133.6123    4003.8964    306.39444     7290 
313000000   -5245.6476    -3268.596    6550.5035    -2081.215    4058.2666    313.98174     7290 
314000000   -5137.4275   -3229.7591    6505.4406   -2132.9388    4040.6072    311.82176     7290 
315000000   -5087.2752   -3141.0575    6477.9168   -2085.1369    4031.3545    310.50248     7290 
316000000   -5088.3527    -3262.883     6461.148   -2228.2558    4053.7255    309.69871     7290 
317000000   -5122.6521    -3065.527    6459.4982   -2079.2139     4136.339    309.61963     7290 
318000000   -5075.5668   -3147.4289    6495.7861   -2110.9487    4039.0867      311.359     7290 
319000000   -4997.0432   -2995.8835    6437.7461   -2083.8795    4085.0393      308.577     7290 
320000000    -5007.413   -3059.2201    6440.2776   -2124.4594    4072.6523    308.69834     7290 
321000000   -5063.3011   -3066.1327    6412.1977   -2078.5648    4075.7332     307.3524     7290 
322000000   -5093.4972   -3140.6877    6542.3643   -2163.5558    4116.3653    313.59161     7290 
323000000   -5012.9678    -3020.683    6473.1686   -2105.6963    4097.9811    310.27489     7290 
324000000   -5006.7756   -3027.1731     6484.588   -2120.8861    4100.4885    310.82224     7290 
325000000   -4995.5843    -3159.766    6494.5619   -2112.2894    3948.1077    311.30032     7290 
326000000   -4994.8265   -3096.5168    6451.5037   -2106.9231    4005.2328    309.23643     7290 
327000000   -4956.0194   -2905.4368    6371.3299   -2064.5785    4115.1611     305.3935     7290 
328000000   -5002.6155   -3077.8218    6399.7747   -2149.6713     4074.465    306.75693     7290 
329000000   -5084.9728   -3084.5033    6478.5677   -2042.6037    4043.0733    310.53368     7290 
330000000   -5093.8509   -3168.2892     6400.285   -2126.4027    4051.9644    306.78139     7290 
331000000    -5126.001   -3104.0318     6434.037   -2120.1444    4142.1136    308.39921     7290 
332000000   -4996.7318   -3057.2991    6433.3931   -2090.6148    4030.0475    308.36835     7290 
333000000   -5126.5852   -3119.1137    6417.6327   -2011.8688    4019.3402    307.61291     7290 
334000000   -5019.1179   -3021.0301    6359.6504   -2072.9203    4071.0081    304.83368     7290 
335000000   -4982.4568   -3036.8909    6517.9964   -2107.6645    4053.2304    312.42359     7290 
336000000   -5129.6594    -3099.816    6540.3668   -2028.6273    4058.4707    313.49586     7290 
337000000   -5115.2802   -3209.9195    6508.3042   -2119.8561    4025.2169    311.95902     7290 
338000000   -5158.5336   -3151.8146     6467.302   -2152.1385    4158.8575    309.99368     7290 
339000000   -4940.9917   -2984.3476    6475.9796   -2099.1621    4055.8062    310.40962     7290 
340000000   -5001.9054   -3006.4026    6483.0803    -2105.028    4100.5307    310.74998     7290 
341000000   -4997.8764   -3130.3989    6496.4472   -2167.4016    4034.8792    311.39068     7289 
342000000   -5105.6627   -3169.2329    6427.9859   -2102.1757    4038.6055    308.10917     7290 
343000000   -5106.8399   -3076.4257    6449.1351   -2026.8635    4057.2777     309.1229     7290 
344000000   -5107.7186   -3051.8221    6472.7449   -2026.3697    4082.2663    310.25457     7290 
345000000    -5109.932   -3105.2531    6407.5694   -2072.7736    4077.4526    307.13055     7290 
346000000   -4991.6051   -2973.2976    6501.8188   -2094.2242    4112.5317    311.64816     7290 
347000000   -5078.3575   -3016.4934    6509.7227   -2052.2678     4114.132    312.02701     7290 
348000000   -5094.8735   -3149.2259    6420.6217   -2052.9514     3998.599    307.75618     7290 
349000000   -5079.8216   -3173.7672    6484.6187   -2171.7298    4077.7841    310.82372     7290 
350000000   -5093.7935   -3203.0119    6482.3436   -2114.1183    4004.8999    310.71467     7290 
351000000   -4976.6094   -3040.9059    6556.6993   -2103.7464      4039.45    314.27872     7290 
352000000   -5063.6868   -3219.3639    6539.1181   -2161.4713    4005.7943    313.43601     7290 
353000000   -5144.9037   -3213.4291    6435.9156   -2198.7449    4130.2194    308.48926     7290 
354000000   -5105.2621    -3079.358    6451.9465   -1997.8564    4023.7605    309.25766     7290 
355000000   -5156.7405   -3206.2606    6522.1346   -2125.2714    4075.7513    312.62194     7290 
356000000   -5036.9857   -3123.5099     6606.885   -2114.9618    4028.4376    316.68424     7290 
357000000   -5159.3886   -3130.3513    6529.4387   -2054.2373    4083.2747    312.97205     7290 
358000000   -5071.3774   -3158.0279    6567.4958   -2093.9903    4007.3398    314.79622     7290 
359000000   -5019.9905   -2952.6561    6558.0554   -2063.8989    4131.2332    314.34372     7290 
360000000   -4939.9811   -3010.4629    6453.5988   -2084.3546    4013.8727    309.33686     7290 
361000000   -5120.9879   -3160.1902    6460.5833   -2119.6313    4080.4289    309.67164     7290 
362000000   -5040.1386   -3152.9155     6491.116   -2173.9753    4061.1984    311.13515     7290 
363000000    -5046.576   -3016.1009    6503.7437   -2037.9597    4068.4347    311.74042     7290 
364000000   -5059.2683   -3124.6701    6405.0896   -2121.0573    4055.6555    307.01169     7290 
365000000   -5090.3825   -3237.5302    6319.6313   -2168.9282    4021.7804    302.91546     7290 
366000000   -4982.0862   -3048.8835    6551.3901   -2064.6221    3997.8247    314.02424     7290 
367000000    -5018.428   -2976.5693    6459.7569   -2067.6589    4109.5175    309.63203     7290 
368000000   -5091.5613   -3208.6097    6542.6747   -2187.6992    4070.6508    313.60648     7290 
369000000   -5123.4759   -3094.3347    6460.0764   -2018.9132    4048.0544    309.64734     7290 
370000000   -5026.0698   -3037.7868    6479.5204   -2090.0269    4078.3099    310.57934     7290 
371000000   -5042.3931   -3076.9719    6528.7053   -2103.3115    4068.7326     312.9369     7290 
372000000    -5074.384   -3117.8143    6382.0298   -2129.5016    4086.0712    305.90638     7290 
373000000   -5003.8949   -3034.7577     6441.272   -2066.1265    4035.2637      308.746     7290 
374000000   -5034.8077   -3081.2651    6546.6731   -2092.7463    4046.2889    313.79814     7290 
375000000   -4995.2273   -3057.0345    6516.2803   -2142.7617    4080.9545    312.34134     7290 
376000000    -5151.492   -3106.9985    6435.2136   -2071.1058    4115.5993    308.45561     7290 
377000000   -5055.5022   -3065.4936    6462.0271   -2083.1192    4073.1278    309.74084     7290 
378000000    -5031.331   -3033.0344     6470.164   -2071.2183    4069.5149    310.13087     7290 
379000000   -5094.0936   -3077.3805    6463.4491   -2077.8248    4094.5379    309.80901     7290 
380000000   -5028.5489   -3190.2494    6369.1468   -2134.5036    3972.8031    305.28887     7290 
381000000   -5100.4672   -3167.5057    6497.9437   -2077.9194    4010.8809    311.46242     7291 
382000000   -5033.6145   -3070.3732    6519.4203   -2070.2408    4033.4822    312.49184     7291 
383000000   -5056.9036   -3096.9659    6509.0471   -2150.0797    4110.0174    311.99463     7291 
384000000   -4970.3514   -2901.1044    6473.1397   -2069.5858    4138.8329     310.2735     7291 
385000000   -5087.6583   -3160.9232    6568.2763   -2201.4624    4128.1975    314.83363     7290 
386000000   -5127.3148   -3046.6389    6458.6891   -2069.6308    4150.3068    309.58085     7290 
387000000   -4986.0809   -2959.4086     6474.638   -2091.6802    4118.3524    310.34532     7290 
388000000   -5061.9735   -3076.1137    6587.2579   -2120.3872     4106.247    315.74347     7290 
389000000   -5040.4931   -3122.8413     6378.801   -2217.2313    4134.8831    305.75161     7291 
390000000   -4951.3726   -3082.6991    6457.9122   -2150.9416     4019.615    309.54361     7291 
391000000   -5130.5321   -3196.3075    6502.5868   -2183.9319    4118.1564    311.68497     7291 
392000000   -5014.6122    -3041.052    6462.6561   -2074.1562    4047.7164      309.771     7291 
393000000   -5124.2246   -3139.6362    6393.4575   -2102.8174    4087.4059    306.45413     7291 
394000000   -5109.6038   -3152.5412    6483.7017   -2074.2206    4031.2832    310.77976     7291 
395000000   -5065.1697   -3108.3968     6488.721   -2045.8893    4002.6622    311.02035     7291 
396000000   -5159.9153   -3174.9592    6545.5862   -2091.2237    4076.1798    313.74604     7291 
397000000   -5056.1991   -3081.9233    6487.2116   -2130.6414    4104.9172      310.948     7291 
398000000   -5020.4316   -3146.8155    6476.1538   -2127.8183    4001.4344    310.41797     7291 
399000000   -5123.5484   -3178.6014    6335.0217   -2109.3869    4054.3338    303.65317     7291 
400000000    -5129.769   -3251.3901    6465.7636   -2119.7084    3998.0874    309.91994     7291 
Loop time of 27259.2 on 14 procs for 100000000 steps with 7000 atoms

Performance: 9508.733 ns/day, 0.003 hours/ns, 3668.493 timesteps/s
99.6% CPU use with 14 MPI tasks x no OpenMP threads

MPI task timing breakdown:
Section |  min time  |  avg time  |  max time  |%varavg| %total
---------------------------------------------------------------
Pair    | 6489.7     | 7310.2     | 7980.6     | 495.1 | 26.82
Bond    | 1094       | 1137.4     | 1201       |  88.1 |  4.17
Neigh   | 4434.5     | 4478.2     | 4522       |  38.6 | 16.43
Comm    | 6993       | 8005.6     | 9724.8     | 871.0 | 29.37
Output  | 0.5156     | 0.51577    | 0.51604    |   0.0 |  0.00
Modify  | 4312.5     | 4387.4     | 4473.9     |  67.6 | 16.10
Other   |            | 1940       |            |       |  7.12

Nlocal:    500 ave 533 max 457 min
Histogram: 2 0 0 0 2 5 1 1 1 2
Nghost:    813.643 ave 1041 max 648 min
Histogram: 3 2 3 0 0 1 1 1 1 2
Neighs:    9853.07 ave 11801 max 9084 min
Histogram: 5 1 2 3 2 0 0 0 0 1

Total # of neighbors = 137943
Ave neighs/atom = 19.7061
Ave special neighs/atom = 7.18657
Neighbor list builds = 6122767
Dangerous builds = 0

write_restart final_state_${fName}.restart
write_restart final_state_Run6_S15N05_rlx.restart
write_data final_state_${fName}.DATA
write_data final_state_Run6_S15N05_rlx.DATA
Total wall time: 7:34:20
