
units           real
boundary p p p
atom_style      full

read_restart final_state_Relax_Es_15kT_Ens_0.5kT.restart
  restoring atom style full from restart
  orthogonal box = (-500 -500 -500) to (500 500 500)
  1 by 2 by 7 MPI processor grid
  restoring pair style lj/cut from restart
  restoring bond style hybrid from restart
  restoring angle style cosine from restart
  7000 atoms
  7290 bonds
  6600 angles
  3 = max # of 1-2 neighbors
  4 = max # of 1-3 neighbors
  8 = max # of 1-4 neighbors
  16 = max # of special neighbors
  special bonds CPU = 0.00150748 secs
  read_restart CPU = 0.0104453 secs

change_box all x final -500.0 500.0 y final -500.0 500.0 z final -500.0 500.0
  orthogonal box = (-500 -500 -500) to (500 500 500)
  orthogonal box = (-500 -500 -500) to (500 500 500)
  orthogonal box = (-500 -500 -500) to (500 500 500)

neighbor 1.9 bin
neigh_modify every 1 delay 1 check yes

angle_style  cosine
angle_coeff   *  2  # K (energy unit)

bond_style 		 hybrid harmonic harmonic/shift/cut
bond_coeff   1   harmonic 3   10
bond_coeff   2   harmonic 3   10
bond_coeff   3   harmonic/shift/cut 8.883   11.22   12.72


pair_style lj/cut 25

pair_coeff  * * 0.296 10 25

special_bonds lj  0 1 1 angle yes
  3 = max # of 1-2 neighbors
  4 = max # of 1-3 neighbors
  8 = max # of 1-4 neighbors
  17120 = # of 1-3 neighbors before angle trim
  13200 = # of 1-3 neighbors after angle trim
  16 = max # of special neighbors
  special bonds CPU = 0.00131535 secs

variable t equal step
variable steps equal 100000000
variable dt_thermo equal 1000000
variable dt_movie equal 10000000
variable dt_restart equal 10000000

group rxnSites type 1 3
1000 atoms in group rxnSites

# fix ID group-ID(atom-types) bond/create Nevery itype jtype Rmin bondtype (prob values = fraction seed) (iparam maxbond newType)
fix bondc rxnSites bond/create/random 20 1 3 12.72 3 prob 1 ${seed} iparam 1 1 jparam 1 3
fix bondc rxnSites bond/create/random 20 1 3 12.72 3 prob 1 737273 iparam 1 1 jparam 1 3

# fix ID group-ID bond/break Nevery bondtype Rmax keyword values ...
fix bondbr rxnSites bond/break 20 3 12.72 prob 1 ${seed}
fix bondbr rxnSites bond/break 20 3 12.72 prob 1 737273

variable frmbnd equal f_bondc[2]
variable brkbnd equal f_bondbr[2]
fix saveBond all print ${dt_thermo} "$t ${frmbnd} ${brkbnd}" file BondData_${fName}.dat screen no
fix saveBond all print 1000000 "$t ${frmbnd} ${brkbnd}" file BondData_${fName}.dat screen no
fix saveBond all print 1000000 "$t ${frmbnd} ${brkbnd}" file BondData_Run9_S15N05_rlx.dat screen no

thermo_style    custom step epair pe ke ebond eangle temp bonds
thermo          ${dt_thermo}
thermo          1000000
fix saveThermo all print ${dt_thermo} "$t $(temp) $(ke) $(pe) $(epair) $(ebond) $(eangle) $(bonds)" file Thermo_${fName}.dat title "# Steps Temp KinEng PotEng Epair Ebond Eangle Bonds" screen no
fix saveThermo all print 1000000 "$t $(temp) $(ke) $(pe) $(epair) $(ebond) $(eangle) $(bonds)" file Thermo_${fName}.dat title "# Steps Temp KinEng PotEng Epair Ebond Eangle Bonds" screen no
fix saveThermo all print 1000000 "$t $(temp) $(ke) $(pe) $(epair) $(ebond) $(eangle) $(bonds)" file Thermo_Run9_S15N05_rlx.dat title "# Steps Temp KinEng PotEng Epair Ebond Eangle Bonds" screen no

############################ Langevin Dynamics ###############################
fix fxlan all langevin $T $T 500 ${seed}
fix fxlan all langevin 310 $T 500 ${seed}
fix fxlan all langevin 310 310 500 ${seed}
fix fxlan all langevin 310 310 500 737273
fix fxnve all nve

comm_style tiled
fix fxbal all balance 1000 1.1 rcb # load balance for spatially heterogeneous system

timestep 30

dump coor all custom ${dt_movie} traj_${fName}.dump id type mol mass x y z xu yu zu
dump coor all custom 10000000 traj_${fName}.dump id type mol mass x y z xu yu zu
dump coor all custom 10000000 traj_Run9_S15N05_rlx.dump id type mol mass x y z xu yu zu

restart ${dt_restart} ${fName}_tp_*.restart
restart 10000000 ${fName}_tp_*.restart
restart 10000000 Run9_S15N05_rlx_tp_*.restart
run ${steps}
run 100000000
Neighbor list info ...
  update every 1 steps, delay 1 steps, check yes
  max neighbors/atom: 2000, page size: 100000
  master list distance cutoff = 26.9
  ghost atom cutoff = 26.9
  binsize = 13.45, bins = 75 75 75
  2 neighbor lists, perpetual/occasional/extra = 1 1 0
  (1) pair lj/cut, perpetual
      attributes: half, newton on
      pair build: half/bin/newton
      stencil: half/bin/3d/newton
      bin: standard
  (2) fix bond/create/random, occasional, copy from (1)
      attributes: half, newton on
      pair build: copy
      stencil: none
      bin: none
Per MPI rank memory allocation (min/avg/max) = 10.33 | 10.7 | 11.34 Mbytes
Step E_pair PotEng KinEng E_bond E_angle Temp Bonds 
300000000    -5023.524   -3066.1495    6451.2777    -2030.442    3987.8165     309.2256     7290 
301000000   -5175.4816   -3135.7363    6491.1655   -2070.3328    4110.0781    311.13752     7290 
302000000    -5142.227   -3228.3561    6590.3434   -2075.2145    3989.0855    315.89136     7290 
303000000   -5084.0269   -3131.1505    6403.6224   -2123.8418    4076.7181    306.94137     7290 
304000000   -5072.9374   -3018.5496    6574.9292   -2036.1924    4090.5802    315.15252     7290 
305000000   -5091.3778   -3098.8773    6388.9734   -2136.2411    4128.7416     306.2392     7290 
306000000   -5145.4182   -3232.3798     6338.699   -2156.6223    4069.6607    303.82943     7290 
307000000   -5098.2865   -3075.2314    6488.3949   -2056.8703    4079.9254    311.00472     7290 
308000000   -5114.6924   -3006.3057    6438.9598   -2058.1171    4166.5038    308.63518     7290 
309000000   -5059.4532   -3102.4477    6525.1005   -2153.9079    4110.9134    312.76411     7290 
310000000   -5031.7606    -3041.753    6599.9568   -2114.5448    4104.5525    316.35216     7290 
311000000    -5016.371   -3036.9934    6501.5836   -2135.2695    4114.6472    311.63689     7290 
312000000   -4997.8129   -2914.8134    6542.0087   -2012.0999    4095.0994    313.57456     7290 
313000000    -5080.611   -3065.4204    6611.7025   -2113.7895    4128.9801    316.91516     7290 
314000000   -5122.5077   -3156.5039     6476.724   -2053.5844    4019.5881    310.44531     7290 
315000000   -5054.4161   -3020.6904     6361.339   -2037.7108    4071.4365    304.91462     7290 
316000000   -5110.1843    -3197.022    6442.7964   -2133.6678    4046.8301    308.81907     7290 
317000000   -5162.8191   -3220.5006    6520.9109    -2075.874    4018.1925    312.56329     7290 
318000000   -4991.9387   -2997.7291    6427.6202   -2074.0093    4068.2189    308.09164     7290 
319000000   -5068.9571   -3159.2081    6520.4722   -2136.1216    4045.8707    312.54227     7290 
320000000   -5021.0748   -3056.6906    6469.1614   -2024.5608     3988.945    310.08281     7290 
321000000   -5107.7717   -3092.7508    6500.2805   -2074.8849    4089.9058    311.57442     7290 
322000000   -5121.8084    -3183.112    6412.9793   -2098.5684    4037.2648    307.38987     7290 
323000000   -5046.4557   -3178.7692     6470.179   -2164.9119    4032.5985    310.13159     7290 
324000000   -5089.5287   -3054.4629    6385.6473   -2082.7237    4117.7895    306.07978     7290 
325000000   -5110.7574   -3008.9028    6464.6147   -2035.6682    4137.5228    309.86488     7290 
326000000   -5114.9115   -3181.5148    6403.0416   -2100.5426    4033.9393    306.91353     7290 
327000000   -5166.5854   -3194.7629    6551.5742   -2102.0461    4073.8686    314.03306     7290 
328000000   -5163.4914   -3221.3027    6517.0902   -2111.1368    4053.3255    312.38016     7291 
329000000   -5076.5656   -3135.3623    6404.0637   -2138.8842    4080.0875    306.96252     7291 
330000000   -5156.7008   -3216.0719    6359.3949   -2101.2176    4041.8464    304.82143     7291 
331000000   -5077.5762    -3041.103    6453.3843   -2091.0178     4127.491    309.32658     7291 
332000000   -5097.1006   -3159.5255    6394.4979   -2099.4481    4037.0232    306.50401     7291 
333000000   -5130.8433   -3184.9246    6426.4905   -2123.9055    4069.8242    308.03749     7291 
334000000    -5027.368   -3003.3614    6440.4691   -2073.0686    4097.0752    308.70752     7291 
335000000   -4995.9845   -3155.9455    6497.9367    -2108.861    3948.8999    311.46208     7291 
336000000   -5045.0575   -3125.2826    6516.7553   -2150.4993    4070.2742     312.3641     7291 
337000000    -5089.747    -3149.296    6445.9062   -2109.0329    4049.4839    308.96813     7291 
338000000   -5083.0391   -3167.8522     6533.336   -2172.2969    4087.4838    313.15886     7291 
339000000     -5146.08   -3223.0222    6383.3224   -2108.9251    4031.9829    305.96834     7291 
340000000   -5111.0731   -3122.8647      6450.09   -2099.6842    4087.8926    309.16867     7291 
341000000   -5178.3646   -3136.2654    6428.9799   -2103.7757     4145.875    308.15681     7291 
342000000   -5055.0242     -3165.52    6590.9494   -2139.2254    4028.7296    315.92041     7291 
343000000   -5185.6935   -3191.3526    6450.6256   -2072.3615    4066.7024    309.19434     7291 
344000000   -5029.9407    -3092.966    6420.5091   -2119.2311    4056.2057    307.75079     7291 
345000000    -5056.557   -3090.7448    6452.7999    -2092.646    4058.4582    309.29857     7290 
346000000   -5257.0881   -3243.5689    6517.5699   -2108.8141    4122.3333    312.40315     7291 
347000000   -4993.4682   -3104.3045    6503.7935   -2122.4724    4011.6361    311.74281     7292 
348000000   -5032.3728   -3225.1991    6601.9247   -2129.7858    3936.9595    316.44648     7292 
349000000   -5052.9897   -3171.4532    6369.0525   -2138.4627    4019.9993    305.28434     7292 
350000000   -5048.5168   -3267.9426    6332.2179   -2175.0072    3955.5813    303.51877     7292 
351000000   -5076.3854   -3165.4768    6499.4948   -2123.2745    4034.1832    311.53676     7292 
352000000   -5047.5149   -3082.3264    6515.4847   -2073.3067    4038.4952     312.3032     7292 
353000000   -5054.4492   -3094.1962    6469.8809   -2141.4937    4101.7467     310.1173     7292 
354000000   -5100.8284   -3145.2814    6435.3098   -2104.9884    4060.5354    308.46022     7292 
355000000   -5005.4016   -3034.1745    6351.8739   -2100.4314    4071.6584    304.46093     7292 
356000000   -5024.5722   -3134.5331    6489.7738   -2095.3424    3985.3814    311.07081     7292 
357000000   -5063.5426   -3090.7206    6477.7288   -2100.4272    4073.2492    310.49347     7292 
358000000   -4991.4302   -2973.0314    6623.2203   -2063.4273    4081.8261    317.46723     7292 
359000000   -5085.5493   -3140.4116    6448.2195   -2139.1698    4084.3075    309.07901     7292 
360000000   -5092.5299   -3080.9748     6454.977   -2076.3357    4087.8909    309.40292     7292 
361000000   -5087.7352   -3110.0403    6342.4852   -2090.6703    4068.3652    304.01091     7292 
362000000   -5071.9093   -3127.8177    6513.2768   -2161.8039    4105.8955    312.19737     7292 
363000000   -5144.3609   -3103.5634    6335.6677   -2115.0443    4155.8418    303.68413     7292 
364000000    -5099.576   -3185.9672    6523.4863   -2160.8158    4074.4246    312.68674     7292 
365000000   -5053.3477   -3018.7931    6517.7796   -2061.5006    4096.0552     312.4132     7292 
366000000   -4979.3617   -3106.6032    6452.3794   -2208.6588    4081.4173    309.27841     7292 
367000000    -5086.087   -3161.6058    6453.1671     -2165.62    4090.1012    309.31617     7292 
368000000   -5096.2076   -3055.6031     6446.589   -2058.4712    4099.0757    309.00086     7292 
369000000   -5225.1627   -3202.2505    6503.9462    -2121.809    4144.7212    311.75013     7292 
370000000   -5131.5581   -3119.6272    6553.4915   -2085.2261     4097.157    314.12496     7292 
371000000    -4982.386   -3035.2599     6381.044   -2116.2582    4063.3843    305.85912     7292 
372000000    -5015.259   -3129.0653    6531.9757   -2135.1209    4021.3147    313.09365     7292 
373000000   -5105.9132   -3232.1102    6409.0575   -2148.3235    4022.1265    307.20188     7292 
374000000   -5060.4952   -3110.6111    6476.0347    -2121.519    4071.4032    310.41227     7292 
375000000   -5104.7785   -3112.8125    6559.6117   -2088.1861    4080.1521    314.41832     7292 
376000000   -5036.6859   -3135.5872    6401.3774   -2108.9208    4010.0195    306.83376     7292 
377000000   -5013.9335   -3113.5807    6423.5027   -2174.8562     4075.209    307.89428     7292 
378000000    -5140.124   -3139.6857    6560.9049    -2084.661    4085.0993     314.4803     7292 
379000000   -5075.8178   -3125.6346    6469.7865   -2135.7961    4085.9793    310.11277     7292 
380000000   -5162.7913   -3266.2123    6515.8882   -2175.8187    4072.3977    312.32254     7292 
381000000   -5021.2953   -3031.3234    6438.0172   -2174.5204    4164.4923    308.58999     7292 
382000000   -5066.4103   -3074.7717    6514.0477   -2049.1399    4040.7786    312.23432     7292 
383000000    -5068.503   -3043.6383    6507.3635   -2059.4153      4084.28    311.91393     7292 
384000000   -5150.2875   -3104.0359    6472.5833    -2135.099    4181.3507    310.24683     7292 
385000000   -4979.6224   -3015.7175    6419.0285   -2088.4328    4052.3377    307.67982     7292 
386000000   -5067.5166    -3126.908    6366.0482   -2143.4702    4084.0788    305.14034     7292 
387000000   -5095.7148   -3182.2818    6485.8245   -2130.8492    4044.2823    310.88152     7292 
388000000   -4958.2084   -2991.8892    6492.8292   -2110.1352    4076.4544    311.21727     7292 
389000000   -4988.5806   -3184.8656    6465.4223   -2209.1162    4012.8313    309.90359     7292 
390000000   -5018.1025   -3091.0625    6381.0068   -2187.5485    4114.5885    305.85734     7292 
391000000   -5147.1508   -3225.1636    6520.0367   -2136.5459    4058.5331    312.52139     7292 
392000000   -5082.4377   -3117.8641    6396.6455   -2143.5556    4108.1291    306.60695     7292 
393000000   -5112.3152   -3177.6939    6270.2654   -2143.6631    4078.2844    300.54923     7292 
394000000   -5110.2847   -3157.0721    6508.3179   -2125.8983     4079.111    311.95968     7292 
395000000   -5011.0848   -3099.3997    6554.8316   -2111.6969     4023.382    314.18919     7292 
396000000    -5060.118   -3078.0778    6436.1797   -2127.3917    4109.4318    308.50192     7292 
397000000   -5111.2685   -3087.7124    6471.9325   -2107.3325    4130.8886    310.21564     7292 
398000000   -5183.9092   -3116.3272    6440.7981   -2048.0755    4115.6575    308.72329     7292 
399000000   -5120.1977   -3148.4581    6448.5913   -2100.2062    4071.9458    309.09684     7292 
400000000   -5021.0608   -3172.0929    6369.2571   -2070.9728    3919.9407    305.29415     7292 
Loop time of 23142.9 on 14 procs for 100000000 steps with 7000 atoms

Performance: 11199.991 ns/day, 0.002 hours/ns, 4320.984 timesteps/s
99.6% CPU use with 14 MPI tasks x no OpenMP threads

MPI task timing breakdown:
Section |  min time  |  avg time  |  max time  |%varavg| %total
---------------------------------------------------------------
Pair    | 6059.3     | 7044.7     | 7899.8     | 631.3 | 30.44
Bond    | 1068.2     | 1083.1     | 1103.2     |  31.4 |  4.68
Neigh   | 4213.5     | 4239       | 4281.9     |  31.1 | 18.32
Comm    | 5327.7     | 6248.8     | 7538       | 808.4 | 27.00
Output  | 0.46442    | 0.46458    | 0.46464    |   0.0 |  0.00
Modify  | 3684.9     | 3698.9     | 3709.9     |  12.7 | 15.98
Other   |            | 827.9      |            |       |  3.58

Nlocal:    500 ave 517 max 489 min
Histogram: 2 2 3 1 0 3 1 0 1 1
Nghost:    811.071 ave 1064 max 606 min
Histogram: 3 0 4 1 0 0 1 2 2 1
Neighs:    9671.29 ave 11254 max 7941 min
Histogram: 2 1 0 1 2 2 2 1 2 1

Total # of neighbors = 135398
Ave neighs/atom = 19.3426
Ave special neighs/atom = 7.17943
Neighbor list builds = 6123033
Dangerous builds = 0

write_restart final_state_${fName}.restart
write_restart final_state_Run9_S15N05_rlx.restart
write_data final_state_${fName}.DATA
write_data final_state_Run9_S15N05_rlx.DATA
Total wall time: 6:25:43
