
units           real
boundary p p p
atom_style      full

read_restart final_state_Relax_Es_15kT_Ens_0.3kT.restart
  restoring atom style full from restart
  orthogonal box = (-500 -500 -500) to (500 500 500)
  1 by 2 by 7 MPI processor grid
  restoring pair style lj/cut from restart
  restoring bond style hybrid from restart
  restoring angle style cosine from restart
  7000 atoms
  7284 bonds
  6600 angles
  3 = max # of 1-2 neighbors
  4 = max # of 1-3 neighbors
  8 = max # of 1-4 neighbors
  16 = max # of special neighbors
  special bonds CPU = 0.0579199 secs
  read_restart CPU = 0.351295 secs

change_box all x final -500.0 500.0 y final -500.0 500.0 z final -500.0 500.0
  orthogonal box = (-500 -500 -500) to (500 500 500)
  orthogonal box = (-500 -500 -500) to (500 500 500)
  orthogonal box = (-500 -500 -500) to (500 500 500)

neighbor 1.9 bin
neigh_modify every 1 delay 1 check yes

angle_style  cosine
angle_coeff   *  2  # K (energy unit)

bond_style 		 hybrid harmonic harmonic/shift/cut
bond_coeff   1   harmonic 3   10
bond_coeff   2   harmonic 3   10
bond_coeff   3   harmonic/shift/cut 8.883   11.22   12.72

pair_style lj/cut 25

pair_coeff  * * 0.178 10 25

special_bonds lj  0 1 1 angle yes
  3 = max # of 1-2 neighbors
  4 = max # of 1-3 neighbors
  8 = max # of 1-4 neighbors
  17072 = # of 1-3 neighbors before angle trim
  13200 = # of 1-3 neighbors after angle trim
  16 = max # of special neighbors
  special bonds CPU = 0.00193206 secs

variable t equal step
variable steps equal 100000000
variable dt_thermo equal 1000000
variable dt_movie equal 5000000
variable dt_restart equal 10000000

group rxnSites type 1 3
1000 atoms in group rxnSites

# fix ID group-ID(atom-types) bond/create Nevery itype jtype Rmin bondtype (prob values = fraction seed) (iparam maxbond newType)
fix bondc rxnSites bond/create/random 20 1 3 12.72 3 prob 1 ${seed} iparam 1 1 jparam 1 3
fix bondc rxnSites bond/create/random 20 1 3 12.72 3 prob 1 965363 iparam 1 1 jparam 1 3

# fix ID group-ID bond/break Nevery bondtype Rmax keyword values ...
fix bondbr rxnSites bond/break 20 3 12.72 prob 1 ${seed}
fix bondbr rxnSites bond/break 20 3 12.72 prob 1 965363

variable frmbnd equal f_bondc[2]
variable brkbnd equal f_bondbr[2]
fix saveBond all print ${dt_thermo} "$t ${frmbnd} ${brkbnd}" file BondData_${fName}.dat screen no
fix saveBond all print 1000000 "$t ${frmbnd} ${brkbnd}" file BondData_${fName}.dat screen no
fix saveBond all print 1000000 "$t ${frmbnd} ${brkbnd}" file BondData_Run10_S15N03_rlx.dat screen no

thermo_style    custom step epair pe ke ebond eangle temp bonds
thermo          ${dt_thermo}
thermo          1000000
fix saveThermo all print ${dt_thermo} "$t $(temp) $(ke) $(pe) $(epair) $(ebond) $(eangle) $(bonds)" file Thermo_${fName}.dat title "# Steps Temp KinEng PotEng Epair Ebond Eangle Bonds" screen no
fix saveThermo all print 1000000 "$t $(temp) $(ke) $(pe) $(epair) $(ebond) $(eangle) $(bonds)" file Thermo_${fName}.dat title "# Steps Temp KinEng PotEng Epair Ebond Eangle Bonds" screen no
fix saveThermo all print 1000000 "$t $(temp) $(ke) $(pe) $(epair) $(ebond) $(eangle) $(bonds)" file Thermo_Run10_S15N03_rlx.dat title "# Steps Temp KinEng PotEng Epair Ebond Eangle Bonds" screen no

############################ Langevin Dynamics ###############################
fix fxlan all langevin $T $T 500 ${seed}
fix fxlan all langevin 310 $T 500 ${seed}
fix fxlan all langevin 310 310 500 ${seed}
fix fxlan all langevin 310 310 500 965363
fix fxnve all nve

comm_style tiled
fix fxbal all balance 1000 1.1 rcb # load balance for spatially heterogeneous system

timestep 30

dump coor all custom ${dt_movie} traj_${fName}.dump id type mol mass x y z xu yu zu
dump coor all custom 5000000 traj_${fName}.dump id type mol mass x y z xu yu zu
dump coor all custom 5000000 traj_Run10_S15N03_rlx.dump id type mol mass x y z xu yu zu

restart ${dt_restart} ${fName}_tp_*.restart
restart 10000000 ${fName}_tp_*.restart
restart 10000000 Run10_S15N03_rlx_tp_*.restart
run ${steps}
run 100000000
Neighbor list info ...
  update every 1 steps, delay 1 steps, check yes
  max neighbors/atom: 2000, page size: 100000
  master list distance cutoff = 26.9
  ghost atom cutoff = 26.9
  binsize = 13.45, bins = 75 75 75
  2 neighbor lists, perpetual/occasional/extra = 1 1 0
  (1) pair lj/cut, perpetual
      attributes: half, newton on
      pair build: half/bin/newton
      stencil: half/bin/3d/newton
      bin: standard
  (2) fix bond/create/random, occasional, copy from (1)
      attributes: half, newton on
      pair build: copy
      stencil: none
      bin: none
Per MPI rank memory allocation (min/avg/max) = 10.34 | 10.75 | 11.7 Mbytes
Step E_pair PotEng KinEng E_bond E_angle Temp Bonds 
300000000   -1804.6994    34.220968    6462.0797   -2029.0024    3867.9227    309.74337     7284 
301000000    -1770.457   -148.49166    6342.1824   -2127.1024    3749.0677    303.99639     7284 
302000000   -1759.3698    32.914595    6529.1209    -2021.876    3814.1604    312.95682     7285 
303000000   -1737.5102   -2.1913096     6431.785   -2071.3034    3806.6223    308.29127     7285 
304000000   -1751.0724    -65.47224    6545.5206    -2145.335    3830.9351    313.74289     7285 
305000000   -1815.6543    33.108236    6456.8714   -1981.1112    3829.8737    309.49372     7285 
306000000   -1813.2572   -102.92118    6459.1951   -2156.0075    3866.3435     309.6051     7285 
307000000   -1804.5281   -41.726284    6371.9895   -2068.1737    3830.9755    305.42512     7284 
308000000   -1830.3283   -92.666962    6421.7785   -2067.5287    3805.1901    307.81163     7285 
309000000   -1813.9864    36.034185     6505.887   -2038.1284    3888.1491    311.84316     7285 
310000000   -1835.0992   -7.5363486    6418.0705   -2086.4436    3914.0065     307.6339     7285 
311000000   -1804.9887    13.802236    6379.1391   -2053.6728    3872.4637    305.76782     7285 
312000000   -1823.4701     66.22564    6404.9802   -1993.3872    3883.0829    307.00645     7285 
313000000   -1723.5984    8.2425431    6474.4692    -2080.436     3812.277    310.33723     7285 
314000000   -1792.7297   -35.284751    6568.5653   -2076.0604    3833.5054    314.84748     7285 
315000000   -1815.5496   -23.842867    6520.0635   -2064.9118    3856.6186    312.52267     7285 
316000000   -1821.4151   -23.308217    6550.9979   -2047.8946    3846.0015    314.00543     7285 
317000000   -1822.0559   -83.134201    6571.9731   -2106.1681    3845.0899    315.01083     7285 
318000000   -1794.3701    4.1912496    6427.0412   -2029.7175    3828.2788    308.06388     7285 
319000000   -1797.0883   -97.388581    6482.5923    -2047.981    3747.6807    310.72659     7285 
320000000   -1782.0077    -18.95245    6443.2581   -2134.8372    3897.8924     308.8412     7285 
321000000   -1776.8432    5.3234557    6421.8846   -2069.6386    3851.8053    307.81672     7285 
322000000   -1778.3961   -9.9536576      6540.32   -2059.5492    3827.9917    313.49362     7285 
323000000   -1793.3312    62.679418    6513.4787   -2051.9323    3907.9429    312.20705     7285 
324000000   -1808.9075   -87.815619    6451.9823   -2117.8224    3838.9142    309.25937     7285 
325000000   -1789.7037    14.381403    6408.7238   -2041.3288     3845.414    307.18589     7285 
326000000   -1807.1371   -125.10594    6463.2688   -2077.3595    3759.3907    309.80036     7285 
327000000    -1802.289   -25.226471    6483.1978   -2044.0896    3821.1521    310.75561     7284 
328000000    -1806.642    86.750898     6492.003   -1992.4899    3885.8827    311.17766     7284 
329000000   -1835.7715   -118.35165    6448.5278    -2062.002    3779.4219    309.09379     7284 
330000000   -1776.6332    -19.99676    6553.5163   -2079.0831    3835.7195    314.12615     7284 
331000000   -1769.7105    41.517363    6491.2894   -2052.4326    3863.6604    311.14346     7284 
332000000   -1788.3595    58.303549    6351.9838   -2053.5015    3900.1645     304.4662     7284 
333000000   -1774.3852    24.226384     6555.614   -2069.3791    3867.9907     314.2267     7284 
334000000   -1858.4888   -25.349283    6485.4155   -1974.2504    3807.3899    310.86191     7284 
335000000   -1722.9805   -9.2739897    6454.0788   -2070.6282    3784.3347    309.35986     7284 
336000000   -1766.4881    4.2938267    6413.5511   -2051.6601     3822.442    307.41727     7284 
337000000   -1804.5351    47.475824    6430.5072   -1989.2969    3841.3078    308.23002     7284 
338000000   -1728.3396   -63.317792    6518.3583   -2063.5453    3728.5671    312.44094     7284 
339000000   -1781.6391    69.962382    6543.9912    -2023.867    3875.4684    313.66958     7284 
340000000   -1783.0854   -29.436271    6346.5297   -2074.3228    3827.9719    304.20477     7284 
341000000    -1793.812   -26.758847    6515.8263   -2036.3745    3803.4277    312.31958     7285 
342000000   -1789.4779     11.15664    6466.4559   -2055.8044     3856.439    309.95313     7284 
343000000   -1818.4497   -8.7089627    6442.6082   -2075.8097    3885.5504    308.81005     7285 
344000000   -1867.7964    -16.77729    6528.7959   -2079.8445    3930.8637    312.94124     7285 
345000000   -1789.9867   -46.421538    6466.2612   -2012.1976    3755.7627     309.9438     7285 
346000000   -1802.1499   -4.6913246    6466.2528   -2049.1641    3846.6227    309.94339     7285 
347000000   -1786.0779   -62.182768    6457.3079   -2118.5785    3842.4736    309.51464     7285 
348000000   -1778.5939   -23.608421     6491.714   -2043.7967    3798.7822    311.16381     7285 
349000000    -1797.482   -9.8619692    6418.2488   -2007.3818    3795.0019    307.64244     7285 
350000000    -1827.815   -13.468376    6512.6832   -2059.8064    3874.1529    312.16892     7285 
351000000   -1807.4942   -106.70994    6466.6911   -2156.7274    3857.5116     309.9644     7285 
352000000   -1823.5662   -57.426839    6564.8996   -2052.6996     3818.839    314.67178     7285 
353000000   -1825.8113   -52.582601    6454.2916   -2071.1702    3844.3988    309.37006     7285 
354000000    -1825.946     31.38513    6559.0024   -2005.1861    3862.5173    314.38911     7285 
355000000   -1790.6553   -42.945217    6481.6315   -2044.1864    3791.8964    310.68053     7285 
356000000   -1775.3257   -93.762027    6415.1704   -2096.0973     3777.661    307.49489     7285 
357000000   -1792.9698    4.4507318    6398.5754   -2007.3469    3804.7674    306.69945     7285 
358000000   -1803.6247   -8.9290109    6545.4828   -2073.7723     3868.468    313.74108     7285 
359000000   -1753.5107    87.493645    6473.9911   -2006.3759    3847.3803    310.31431     7285 
360000000   -1792.7014    121.98976    6483.6348   -1995.4453    3910.1364    310.77656     7285 
361000000   -1762.2116    50.071204     6551.098   -2050.0025    3862.2853    314.01023     7285 
362000000   -1804.3899   -70.126433    6384.7148   -2075.6002    3809.8637    306.03508     7285 
363000000   -1817.3705   -153.55705    6428.0729   -2086.7706     3750.584    308.11334     7285 
364000000   -1801.3932    13.085319    6513.3679   -2062.1597    3876.6382    312.20173     7285 
365000000   -1829.8504   -67.199104    6524.8836   -2092.2802    3854.9315    312.75371     7285 
366000000    -1788.328    46.561522     6661.895   -2004.4415    3839.3309      319.321     7285 
367000000   -1763.8558    94.771983    6440.7093   -2009.2501    3867.8779    308.71903     7285 
368000000   -1796.1283    6.2977649     6513.049   -2075.1744    3877.6004    312.18645     7285 
369000000   -1701.2725   -52.537229    6440.2116   -2104.7362    3753.4715    308.69518     7285 
370000000   -1826.3333   -64.817756    6402.5618    -2022.402    3783.9175    306.89053     7284 
371000000   -1795.2311   -12.746763    6419.5123   -2055.9829    3838.4673    307.70301     7285 
372000000   -1779.9325   -53.184695    6511.9736   -2045.6177    3772.3655     312.1349     7285 
373000000   -1804.8111   -154.52296    6436.2232   -2124.2784    3774.5665      308.504     7285 
374000000     -1847.46    11.662821    6395.8167   -2024.5877    3883.7106    306.56722     7286 
375000000    -1790.846   -14.316482    6462.3878   -2045.9226    3822.4521    309.75814     7286 
376000000   -1787.2226   -127.61955    6530.9498   -2114.0866    3773.6897    313.04448     7286 
377000000   -1793.7367   -49.887883    6528.3585   -2035.7335    3779.5823    312.92027     7286 
378000000   -1810.9476   -113.29052     6511.369   -2078.1984    3775.8555    312.10592     7286 
379000000   -1852.4109    63.303498    6387.3389   -1997.0451    3912.7595    306.16085     7286 
380000000   -1804.3801   -20.803812    6356.1816   -2077.6005    3861.1769    304.66741     7286 
381000000    -1763.526    32.228521    6425.0064   -2045.0678    3840.8222    307.96635     7286 
382000000      -1757.3    37.236586     6447.176   -2038.8089    3833.3455    309.02899     7286 
383000000    -1781.314   -37.565577     6495.811   -2044.3134    3788.0619    311.36019     7286 
384000000   -1785.8995   -45.434704    6553.4083   -2039.9146    3780.3795    314.12097     7286 
385000000   -1796.6484   -1.0870116    6399.9814   -2047.9845    3843.5459    306.76684     7285 
386000000   -1799.9816    50.544123    6446.9554   -2035.1456    3885.6714    309.01842     7285 
387000000   -1738.5951   -52.915106     6529.786   -2105.2114    3790.8914     312.9887     7285 
388000000   -1811.0202   -31.141012    6556.5657   -2050.3681    3830.2473    314.27231     7286 
389000000   -1789.4208   -111.75548    6447.4853   -2100.6035    3778.2689    309.04382     7286 
390000000   -1832.8424    -59.64468     6444.788   -2072.0403    3845.2381    308.91453     7286 
391000000   -1776.1181    21.715979    6339.7679   -2037.4016    3835.2356    303.88066     7286 
392000000   -1809.9815   -94.996445    6392.9611   -2133.2657    3848.2507    306.43034     7285 
393000000   -1793.8807   -46.572293    6508.7553   -2134.8972    3882.2057    311.98064     7285 
394000000   -1762.0366    3.0985727    6392.2512   -2064.4067    3829.5419    306.39632     7285 
395000000   -1792.1093   -7.6946819    6569.5065   -2039.7902    3824.2048     314.8926     7285 
396000000   -1783.4047    28.010442    6421.2971   -2040.6604    3852.0755    307.78856     7286 
397000000   -1781.3948   -23.726652    6472.3642   -2058.5354    3816.2036    310.23633     7286 
398000000   -1779.6653   -2.3043357    6552.5629   -2080.9837    3858.3446    314.08045     7285 
399000000   -1758.5583    3.1092274    6530.1013   -2046.2764     3807.944    313.00381     7285 
400000000   -1742.4218   0.61043309    6389.7836   -2063.7468    3806.7791    306.27804     7285 
Loop time of 23422.9 on 14 procs for 100000000 steps with 7000 atoms

Performance: 11066.085 ns/day, 0.002 hours/ns, 4269.323 timesteps/s
99.5% CPU use with 14 MPI tasks x no OpenMP threads

MPI task timing breakdown:
Section |  min time  |  avg time  |  max time  |%varavg| %total
---------------------------------------------------------------
Pair    | 4072.2     | 4663       | 5346.8     | 528.2 | 19.91
Bond    | 1083.3     | 1110.5     | 1137.4     |  45.2 |  4.74
Neigh   | 3686.7     | 3718.2     | 3766.4     |  38.3 | 15.87
Comm    | 7032.5     | 7952.7     | 9083.8     | 625.5 | 33.95
Output  | 0.54953    | 0.54978    | 0.55003    |   0.0 |  0.00
Modify  | 4248.2     | 4333       | 4369       |  52.9 | 18.50
Other   |            | 1645       |            |       |  7.02

Nlocal:    500 ave 535 max 467 min
Histogram: 1 3 1 1 0 2 2 1 2 1
Nghost:    689.857 ave 889 max 502 min
Histogram: 1 2 4 1 0 0 0 0 4 2
Neighs:    6287.71 ave 7403 max 5036 min
Histogram: 1 2 1 2 2 1 0 1 0 4

Total # of neighbors = 88028
Ave neighs/atom = 12.5754
Ave special neighs/atom = 7.17971
Neighbor list builds = 6126379
Dangerous builds = 0

write_restart final_state_${fName}.restart
write_restart final_state_Run10_S15N03_rlx.restart
write_data final_state_${fName}.DATA
write_data final_state_Run10_S15N03_rlx.DATA
Total wall time: 6:30:23
