
units           real
boundary p p p
atom_style      full

read_restart final_state_Relax_Es_15kT_Ens_0.3kT.restart
  restoring atom style full from restart
  orthogonal box = (-500 -500 -500) to (500 500 500)
  1 by 2 by 7 MPI processor grid
  restoring pair style lj/cut from restart
  restoring bond style hybrid from restart
  restoring angle style cosine from restart
  7000 atoms
  7284 bonds
  6600 angles
  3 = max # of 1-2 neighbors
  4 = max # of 1-3 neighbors
  8 = max # of 1-4 neighbors
  16 = max # of special neighbors
  special bonds CPU = 0.00137341 secs
  read_restart CPU = 0.0382811 secs

change_box all x final -500.0 500.0 y final -500.0 500.0 z final -500.0 500.0
  orthogonal box = (-500 -500 -500) to (500 500 500)
  orthogonal box = (-500 -500 -500) to (500 500 500)
  orthogonal box = (-500 -500 -500) to (500 500 500)

neighbor 1.9 bin
neigh_modify every 1 delay 1 check yes

angle_style  cosine
angle_coeff   *  2  # K (energy unit)

bond_style 		 hybrid harmonic harmonic/shift/cut
bond_coeff   1   harmonic 3   10
bond_coeff   2   harmonic 3   10
bond_coeff   3   harmonic/shift/cut 8.883   11.22   12.72

pair_style lj/cut 25

pair_coeff  * * 0.178 10 25

special_bonds lj  0 1 1 angle yes
  3 = max # of 1-2 neighbors
  4 = max # of 1-3 neighbors
  8 = max # of 1-4 neighbors
  17072 = # of 1-3 neighbors before angle trim
  13200 = # of 1-3 neighbors after angle trim
  16 = max # of special neighbors
  special bonds CPU = 0.00115414 secs

variable t equal step
variable steps equal 100000000
variable dt_thermo equal 1000000
variable dt_movie equal 5000000
variable dt_restart equal 10000000

group rxnSites type 1 3
1000 atoms in group rxnSites

# fix ID group-ID(atom-types) bond/create Nevery itype jtype Rmin bondtype (prob values = fraction seed) (iparam maxbond newType)
fix bondc rxnSites bond/create/random 20 1 3 12.72 3 prob 1 ${seed} iparam 1 1 jparam 1 3
fix bondc rxnSites bond/create/random 20 1 3 12.72 3 prob 1 151787 iparam 1 1 jparam 1 3

# fix ID group-ID bond/break Nevery bondtype Rmax keyword values ...
fix bondbr rxnSites bond/break 20 3 12.72 prob 1 ${seed}
fix bondbr rxnSites bond/break 20 3 12.72 prob 1 151787

variable frmbnd equal f_bondc[2]
variable brkbnd equal f_bondbr[2]
fix saveBond all print ${dt_thermo} "$t ${frmbnd} ${brkbnd}" file BondData_${fName}.dat screen no
fix saveBond all print 1000000 "$t ${frmbnd} ${brkbnd}" file BondData_${fName}.dat screen no
fix saveBond all print 1000000 "$t ${frmbnd} ${brkbnd}" file BondData_Run1_S15N03_rlx.dat screen no

thermo_style    custom step epair pe ke ebond eangle temp bonds
thermo          ${dt_thermo}
thermo          1000000
fix saveThermo all print ${dt_thermo} "$t $(temp) $(ke) $(pe) $(epair) $(ebond) $(eangle) $(bonds)" file Thermo_${fName}.dat title "# Steps Temp KinEng PotEng Epair Ebond Eangle Bonds" screen no
fix saveThermo all print 1000000 "$t $(temp) $(ke) $(pe) $(epair) $(ebond) $(eangle) $(bonds)" file Thermo_${fName}.dat title "# Steps Temp KinEng PotEng Epair Ebond Eangle Bonds" screen no
fix saveThermo all print 1000000 "$t $(temp) $(ke) $(pe) $(epair) $(ebond) $(eangle) $(bonds)" file Thermo_Run1_S15N03_rlx.dat title "# Steps Temp KinEng PotEng Epair Ebond Eangle Bonds" screen no

############################ Langevin Dynamics ###############################
fix fxlan all langevin $T $T 500 ${seed}
fix fxlan all langevin 310 $T 500 ${seed}
fix fxlan all langevin 310 310 500 ${seed}
fix fxlan all langevin 310 310 500 151787
fix fxnve all nve

comm_style tiled
fix fxbal all balance 1000 1.1 rcb # load balance for spatially heterogeneous system

timestep 30

dump coor all custom ${dt_movie} traj_${fName}.dump id type mol mass x y z xu yu zu
dump coor all custom 5000000 traj_${fName}.dump id type mol mass x y z xu yu zu
dump coor all custom 5000000 traj_Run1_S15N03_rlx.dump id type mol mass x y z xu yu zu

restart ${dt_restart} ${fName}_tp_*.restart
restart 10000000 ${fName}_tp_*.restart
restart 10000000 Run1_S15N03_rlx_tp_*.restart
run ${steps}
run 100000000
Neighbor list info ...
  update every 1 steps, delay 1 steps, check yes
  max neighbors/atom: 2000, page size: 100000
  master list distance cutoff = 26.9
  ghost atom cutoff = 26.9
  binsize = 13.45, bins = 75 75 75
  2 neighbor lists, perpetual/occasional/extra = 1 1 0
  (1) pair lj/cut, perpetual
      attributes: half, newton on
      pair build: half/bin/newton
      stencil: half/bin/3d/newton
      bin: standard
  (2) fix bond/create/random, occasional, copy from (1)
      attributes: half, newton on
      pair build: copy
      stencil: none
      bin: none
Per MPI rank memory allocation (min/avg/max) = 10.34 | 10.75 | 11.7 Mbytes
Step E_pair PotEng KinEng E_bond E_angle Temp Bonds 
300000000   -1804.6994    34.220968    6462.0797   -2029.0024    3867.9227    309.74337     7284 
301000000   -1801.5236   -20.581929    6469.8177   -2060.7429    3841.6845    310.11427     7285 
302000000   -1851.9526   -175.39974    6481.4874   -2066.2717    3742.8245    310.67362     7285 
303000000   -1736.4401   -5.6996567    6390.8529   -2056.0357    3786.7761    306.32929     7285 
304000000    -1859.371    90.556124    6470.3592   -1987.8985    3937.8257    310.14022     7285 
305000000   -1807.2547   -77.418241    6498.7889   -2145.0928    3874.9292    311.50293     7285 
306000000    -1819.876   -60.691958    6542.7697   -2114.0219     3873.206    313.61104     7285 
307000000   -1811.0699   -68.319371    6556.0754   -2055.5444     3798.295    314.24881     7285 
308000000    -1804.369    64.521184    6502.4476   -1995.8637    3864.7539     311.6783     7285 
309000000   -1821.3493   -74.607277    6475.6838   -2109.1969     3855.939    310.39545     7285 
310000000   -1812.0623   -81.654502    6422.0439   -2087.5164    3817.9242    307.82435     7285 
311000000   -1847.5264  -0.11079118    6446.7047    -2022.436    3869.8515    309.00641     7284 
312000000   -1812.1198   0.63184687    6494.3883    -2013.512    3826.2636      311.292     7285 
313000000    -1776.623    66.276721    6403.0451   -2029.0847    3871.9844    306.91369     7285 
314000000   -1765.5111   -26.480891    6531.7509   -2068.7243    3807.7545    313.08288     7285 
315000000   -1754.0443    68.764544    6526.6234   -2079.3507    3902.1596     312.8371     7285 
316000000    -1786.301   -121.21358    6540.4947   -2032.3844    3697.4718    313.50199     7285 
317000000   -1774.7536   -110.26328     6513.685   -2150.0041    3814.4945    312.21694     7285 
318000000   -1811.3358    -82.83114    6456.0504   -2044.7677    3773.2723    309.45437     7285 
319000000   -1780.3085    6.9193107    6516.3907   -2068.4094    3855.6372    312.34662     7285 
320000000   -1774.1457   -54.487454    6485.2084   -2098.6422    3818.3005    310.85198     7285 
321000000     -1771.37   -21.638375    6406.9714   -2031.3039    3781.0355    307.10189     7285 
322000000   -1796.7121   -38.886049    6471.3602   -2035.7773    3793.6033     310.1882     7285 
323000000   -1698.3705   -42.077712    6394.4342   -2077.2877    3733.5805    306.50095     7285 
324000000   -1755.3915   -74.846546    6449.7412   -2103.2754    3783.8203    309.15195     7285 
325000000   -1794.9424    -71.11245    6496.6088     -2114.05    3837.8799    311.39843     7285 
326000000    -1814.707    -78.30851    6543.8261   -2101.7779    3838.1763    313.66167     7285 
327000000   -1776.1838   -179.53258    6616.5569   -2112.8769    3709.5281    317.14784     7285 
328000000   -1787.4481   -46.383723    6494.8377   -2044.1287    3785.1931    311.31354     7285 
329000000   -1856.0374   -165.46262      6474.33   -2101.6368    3792.2116    310.33056     7285 
330000000   -1818.5393   -93.595342    6530.7042   -2054.3694    3779.3133    313.03271     7285 
331000000   -1817.7451   -51.414238    6397.9662     -2005.35    3771.6809    306.67025     7285 
332000000   -1783.6976    59.467328    6547.8758   -2021.0792    3864.2441    313.85579     7285 
333000000   -1801.5223   -96.843249    6509.7632   -2059.6844    3764.3634    312.02895     7285 
334000000   -1786.8017   -53.998042    6444.4032   -2056.4667    3789.2704    308.89609     7285 
335000000   -1783.0191   -7.0510599    6375.7538   -2059.8235    3835.7915    305.60555     7284 
336000000   -1794.7006   -80.555714    6485.8488   -2086.6646    3800.8094    310.88268     7284 
337000000   -1767.9655   -9.2273695    6575.9946     -2079.44    3838.1782    315.20359     7285 
338000000   -1821.4092   -24.264671    6436.1704   -2047.6877    3844.8323    308.50147     7285 
339000000   -1751.6158    12.047135    6441.0588   -2009.2713    3772.9342    308.73579     7285 
340000000    -1764.147    27.608103    6413.4188   -2043.3854    3835.1406    307.41093     7285 
341000000   -1783.1381   -37.234064    6498.6093   -2082.5678    3828.4718    311.49432     7284 
342000000   -1814.1943     32.28868    6410.4735   -2005.0445    3851.5276    307.26976     7284 
343000000   -1784.5627  -0.84970145    6475.9182   -2030.6589    3814.3719    310.40668     7284 
344000000   -1804.6966   -77.169718    6460.5324   -2084.2728    3811.7997     309.6692     7284 
345000000   -1796.8607   -15.085688    6556.4359   -2048.3089    3830.0839    314.26609     7284 
346000000   -1698.6076    68.030476    6597.1246   -2060.8924    3827.5305     316.2164     7284 
347000000   -1776.0378   -36.988069     6383.884   -2040.4228    3779.4726    305.99525     7285 
348000000   -1827.2643    40.086696    6439.1829   -2064.9144    3932.2654    308.64587     7285 
349000000   -1751.5181    40.674157    6515.3231   -2035.0804    3827.2727    312.29545     7285 
350000000   -1741.7706    31.980636    6453.6576   -2029.6957     3803.447    309.33968     7285 
351000000   -1801.9333   -43.088476    6509.0826   -2069.7668    3828.6116    311.99633     7285 
352000000   -1793.0847    5.1026679    6585.1076   -2084.0812    3882.2686     315.6404     7285 
353000000   -1799.2094     8.654772    6554.6141   -2064.4689    3872.3331    314.17877     7285 
354000000   -1853.5534   -124.75723    6524.9214   -2107.5805    3836.3767    312.75552     7285 
355000000   -1767.1278    21.823641     6499.624   -2083.7844    3872.7359    311.54296     7285 
356000000   -1752.7372    134.35378    6396.7347   -2001.3957    3888.4867    306.61122     7285 
357000000   -1841.2896   -59.229819    6471.3264    -2065.212    3847.2718    310.18659     7285 
358000000   -1776.0239    -82.03549     6484.551   -2070.3508    3764.3391    310.82047     7285 
359000000   -1764.7928    56.822086    6466.2098    -2010.581    3832.1959    309.94133     7285 
360000000   -1791.4721   -6.3447202    6478.7722   -2061.4629    3846.5902    310.54348     7285 
361000000   -1826.6313    102.01291    6442.2654   -1974.8868     3903.531    308.79362     7285 
362000000   -1785.4614    54.909078    6399.9637   -2051.1042    3891.4746    306.76599     7285 
363000000   -1758.5877   -44.193741    6450.3537    -2086.015    3800.4089    309.18131     7285 
364000000   -1804.7779    22.152899    6595.5751   -2042.0265    3868.9573    316.14213     7285 
365000000    -1762.678    -21.35055    6453.1502   -2065.4203    3806.7478    309.31535     7286 
366000000   -1739.6414   -2.7728945    6507.7028   -2034.7737    3771.6423    311.93019     7286 
367000000    -1736.338    73.722173    6362.0227   -2041.3437    3851.4039    304.94739     7286 
368000000   -1717.5163    -86.24489     6427.858   -2080.5844    3711.8558    308.10304     7285 
369000000   -1754.4046    54.470943    6498.6849   -2044.6499    3853.5254    311.49794     7286 
370000000   -1766.7923   -87.789781    6474.6533     -2093.86    3772.8625    310.34605     7286 
371000000   -1760.1157   -38.730327    6477.9912   -2084.6625    3806.0479    310.50604     7286 
372000000   -1824.8401   -90.588771    6564.6869    -2127.608    3861.8593    314.66158     7286 
373000000   -1785.2375   -40.679414    6503.4591   -2091.6113    3836.1694    311.72678     7286 
374000000   -1757.0695   -71.221148    6364.9874   -2136.7588    3822.6071    305.08949     7286 
375000000   -1795.3092    40.181704     6522.358   -2058.1158    3893.6066    312.63266     7286 
376000000   -1812.4943   -68.064798    6604.6979   -2085.2181    3829.6475    316.57941     7285 
377000000   -1822.5155   -74.183108    6499.6837   -2057.0633    3805.3957    311.54582     7286 
378000000    -1817.609   -122.48358    6461.4041   -2087.9983    3783.1237    309.71098     7286 
379000000   -1710.1215    10.908962    6399.2582   -2077.8237    3798.8541    306.73218     7286 
380000000   -1810.1434   -93.813322     6511.091   -2125.7155    3842.0455     312.0926     7286 
381000000    -1792.284   -30.883596    6450.0322    -2021.236    3782.6364     309.1659     7286 
382000000    -1754.355    46.793319    6503.9207   -1955.7733    3756.9216    311.74891     7286 
383000000   -1810.4098    17.993453    6483.9823   -2021.5942    3849.9974    310.79321     7286 
384000000   -1793.7441   -81.352015    6423.5793   -2113.7953    3826.1874    307.89795     7286 
385000000   -1802.1734   -41.688708     6532.019   -2101.0522    3861.5369    313.09573     7286 
386000000   -1819.1187   -51.319535    6427.2096   -2040.6796    3808.4788    308.07196     7286 
387000000   -1784.8446    36.748889    6479.7657   -2044.5286    3866.1221     310.5911     7286 
388000000   -1795.3054   -62.461455    6478.9572   -2077.1166    3809.9606    310.55235     7286 
389000000   -1771.1314    8.2292033    6385.3815   -2068.1335    3847.4941    306.06703     7286 
390000000   -1787.5801   -62.745504    6412.0533     -2087.47    3812.3046    307.34548     7286 
391000000   -1821.5364   -19.520018    6550.8654   -2061.9331    3863.9496    313.99908     7286 
392000000   -1767.5595   -34.473341    6418.5023   -2130.9288    3864.0149     307.6546     7286 
393000000   -1821.5623   -84.622136    6356.4491    -2035.179    3772.1192    304.68023     7286 
394000000   -1779.9397   -25.080484    6469.1166   -2075.1096    3829.9688    310.08066     7287 
395000000   -1805.5835   -12.159355    6384.4632   -2091.9927    3885.4169    306.02302     7287 
396000000   -1773.1217   -85.984474    6407.1219   -2138.0587     3825.196    307.10911     7287 
397000000   -1749.7322   -49.250569    6486.6119   -2116.5473     3817.029    310.91926     7287 
398000000   -1826.5315   -36.883628    6504.9135   -2078.6728    3868.3207     311.7965     7287 
399000000   -1828.9202    -9.191507    6450.2731   -2027.0594    3846.7881    309.17745     7287 
400000000   -1801.6908   -35.504123     6648.517   -2089.4562    3855.6429    318.67976     7287 
Loop time of 21532.4 on 14 procs for 100000000 steps with 7000 atoms

Performance: 12037.648 ns/day, 0.002 hours/ns, 4644.154 timesteps/s
99.6% CPU use with 14 MPI tasks x no OpenMP threads

MPI task timing breakdown:
Section |  min time  |  avg time  |  max time  |%varavg| %total
---------------------------------------------------------------
Pair    | 4119.3     | 4875.9     | 5684       | 595.5 | 22.64
Bond    | 1112       | 1159.9     | 1203.1     | 101.0 |  5.39
Neigh   | 3893.3     | 3914.8     | 3957       |  31.2 | 18.18
Comm    | 5704.7     | 6619.3     | 7509.4     | 614.6 | 30.74
Output  | 0.44652    | 0.44673    | 0.44676    |   0.0 |  0.00
Modify  | 3908       | 4009       | 4131.9     | 134.8 | 18.62
Other   |            | 953.1      |            |       |  4.43

Nlocal:    500 ave 530 max 480 min
Histogram: 3 2 0 1 3 0 2 2 0 1
Nghost:    692.857 ave 902 max 505 min
Histogram: 1 3 3 1 0 0 1 1 2 2
Neighs:    6491.93 ave 8140 max 5590 min
Histogram: 4 2 1 1 1 2 2 0 0 1

Total # of neighbors = 90887
Ave neighs/atom = 12.9839
Ave special neighs/atom = 7.18257
Neighbor list builds = 6126029
Dangerous builds = 0

write_restart final_state_${fName}.restart
write_restart final_state_Run1_S15N03_rlx.restart
write_data final_state_${fName}.DATA
write_data final_state_Run1_S15N03_rlx.DATA
Total wall time: 5:58:52
