
units           real
boundary p p p
atom_style      full

read_restart final_state_Relax_Es_15kT_Ens_0.3kT.restart
  restoring atom style full from restart
  orthogonal box = (-500 -500 -500) to (500 500 500)
  1 by 2 by 7 MPI processor grid
  restoring pair style lj/cut from restart
  restoring bond style hybrid from restart
  restoring angle style cosine from restart
  7000 atoms
  7284 bonds
  6600 angles
  3 = max # of 1-2 neighbors
  4 = max # of 1-3 neighbors
  8 = max # of 1-4 neighbors
  16 = max # of special neighbors
  special bonds CPU = 0.00140115 secs
  read_restart CPU = 0.0358928 secs

change_box all x final -500.0 500.0 y final -500.0 500.0 z final -500.0 500.0
  orthogonal box = (-500 -500 -500) to (500 500 500)
  orthogonal box = (-500 -500 -500) to (500 500 500)
  orthogonal box = (-500 -500 -500) to (500 500 500)

neighbor 1.9 bin
neigh_modify every 1 delay 1 check yes

angle_style  cosine
angle_coeff   *  2  # K (energy unit)

bond_style 		 hybrid harmonic harmonic/shift/cut
bond_coeff   1   harmonic 3   10
bond_coeff   2   harmonic 3   10
bond_coeff   3   harmonic/shift/cut 8.883   11.22   12.72

pair_style lj/cut 25

pair_coeff  * * 0.178 10 25

special_bonds lj  0 1 1 angle yes
  3 = max # of 1-2 neighbors
  4 = max # of 1-3 neighbors
  8 = max # of 1-4 neighbors
  17072 = # of 1-3 neighbors before angle trim
  13200 = # of 1-3 neighbors after angle trim
  16 = max # of special neighbors
  special bonds CPU = 0.0011967 secs

variable t equal step
variable steps equal 100000000
variable dt_thermo equal 1000000
variable dt_movie equal 5000000
variable dt_restart equal 10000000

group rxnSites type 1 3
1000 atoms in group rxnSites

# fix ID group-ID(atom-types) bond/create Nevery itype jtype Rmin bondtype (prob values = fraction seed) (iparam maxbond newType)
fix bondc rxnSites bond/create/random 20 1 3 12.72 3 prob 1 ${seed} iparam 1 1 jparam 1 3
fix bondc rxnSites bond/create/random 20 1 3 12.72 3 prob 1 644796 iparam 1 1 jparam 1 3

# fix ID group-ID bond/break Nevery bondtype Rmax keyword values ...
fix bondbr rxnSites bond/break 20 3 12.72 prob 1 ${seed}
fix bondbr rxnSites bond/break 20 3 12.72 prob 1 644796

variable frmbnd equal f_bondc[2]
variable brkbnd equal f_bondbr[2]
fix saveBond all print ${dt_thermo} "$t ${frmbnd} ${brkbnd}" file BondData_${fName}.dat screen no
fix saveBond all print 1000000 "$t ${frmbnd} ${brkbnd}" file BondData_${fName}.dat screen no
fix saveBond all print 1000000 "$t ${frmbnd} ${brkbnd}" file BondData_Run2_S15N03_rlx.dat screen no

thermo_style    custom step epair pe ke ebond eangle temp bonds
thermo          ${dt_thermo}
thermo          1000000
fix saveThermo all print ${dt_thermo} "$t $(temp) $(ke) $(pe) $(epair) $(ebond) $(eangle) $(bonds)" file Thermo_${fName}.dat title "# Steps Temp KinEng PotEng Epair Ebond Eangle Bonds" screen no
fix saveThermo all print 1000000 "$t $(temp) $(ke) $(pe) $(epair) $(ebond) $(eangle) $(bonds)" file Thermo_${fName}.dat title "# Steps Temp KinEng PotEng Epair Ebond Eangle Bonds" screen no
fix saveThermo all print 1000000 "$t $(temp) $(ke) $(pe) $(epair) $(ebond) $(eangle) $(bonds)" file Thermo_Run2_S15N03_rlx.dat title "# Steps Temp KinEng PotEng Epair Ebond Eangle Bonds" screen no

############################ Langevin Dynamics ###############################
fix fxlan all langevin $T $T 500 ${seed}
fix fxlan all langevin 310 $T 500 ${seed}
fix fxlan all langevin 310 310 500 ${seed}
fix fxlan all langevin 310 310 500 644796
fix fxnve all nve

comm_style tiled
fix fxbal all balance 1000 1.1 rcb # load balance for spatially heterogeneous system

timestep 30

dump coor all custom ${dt_movie} traj_${fName}.dump id type mol mass x y z xu yu zu
dump coor all custom 5000000 traj_${fName}.dump id type mol mass x y z xu yu zu
dump coor all custom 5000000 traj_Run2_S15N03_rlx.dump id type mol mass x y z xu yu zu

restart ${dt_restart} ${fName}_tp_*.restart
restart 10000000 ${fName}_tp_*.restart
restart 10000000 Run2_S15N03_rlx_tp_*.restart
run ${steps}
run 100000000
Neighbor list info ...
  update every 1 steps, delay 1 steps, check yes
  max neighbors/atom: 2000, page size: 100000
  master list distance cutoff = 26.9
  ghost atom cutoff = 26.9
  binsize = 13.45, bins = 75 75 75
  2 neighbor lists, perpetual/occasional/extra = 1 1 0
  (1) pair lj/cut, perpetual
      attributes: half, newton on
      pair build: half/bin/newton
      stencil: half/bin/3d/newton
      bin: standard
  (2) fix bond/create/random, occasional, copy from (1)
      attributes: half, newton on
      pair build: copy
      stencil: none
      bin: none
Per MPI rank memory allocation (min/avg/max) = 10.34 | 10.75 | 11.7 Mbytes
Step E_pair PotEng KinEng E_bond E_angle Temp Bonds 
300000000   -1804.6994    34.220968    6462.0797   -2029.0024    3867.9227    309.74337     7284 
301000000   -1730.6628    4.6159033    6489.3379   -2022.6762    3757.9548    311.04992     7285 
302000000   -1787.3625   -54.902399    6447.2564   -2069.2707    3801.7308    309.03285     7285 
303000000   -1759.2892    17.174148    6473.3999   -2029.1201    3805.5834    310.28597     7285 
304000000   -1763.7068    76.663644    6468.4839   -2026.6538    3867.0242    310.05034     7285 
305000000   -1761.1713    106.82365    6545.7316   -1996.8792    3864.8741    313.75301     7285 
306000000   -1738.2933     32.38399    6422.0148   -2010.7628    3781.4401    307.82296     7285 
307000000   -1809.0446    43.548904    6417.5608   -2016.6509    3869.2444    307.60947     7285 
308000000   -1792.2847    1.2210114    6545.8446   -2076.4983     3870.004    313.75842     7285 
309000000   -1795.7081     41.70459    6494.9077   -2031.2332    3868.6458    311.31689     7285 
310000000   -1760.8628    14.178294    6492.5014   -2072.0535    3847.0946    311.20155     7285 
311000000   -1767.7166    40.221981     6438.293   -2041.1439    3849.0826    308.60321     7285 
312000000   -1719.7374    48.462901    6446.1106   -2057.4105    3825.6108    308.97793     7285 
313000000   -1771.2928   -22.905593    6561.4614   -2039.6561    3788.0433    314.50698     7285 
314000000    -1785.983    19.157717    6389.5822   -2105.3028    3910.4435    306.26839     7286 
315000000   -1743.5869    31.629286     6562.625   -2082.6221    3857.8383    314.56275     7286 
316000000   -1821.6621   -19.828598    6286.7332   -2043.5318    3845.3653    301.33858     7286 
317000000   -1779.1946   -1.8583174    6495.3024   -2080.7224    3858.0588    311.33581     7286 
318000000   -1730.6463   -9.0004614    6465.9821   -2077.0546    3798.7004    309.93042     7286 
319000000   -1757.0658   -29.439596    6446.2238   -2110.1362    3837.7625    308.98336     7286 
320000000   -1803.5165    4.0514602     6524.041   -2030.1471     3837.715    312.71332     7286 
321000000   -1826.6895   -62.362568    6424.5316   -2064.5461     3828.873     307.9436     7286 
322000000   -1779.2488   -33.369446    6446.3994   -2127.0762    3872.9555    308.99177     7286 
323000000    -1780.127   -55.139415      6399.57   -2129.4704     3854.458    306.74712     7286 
324000000   -1826.9324    -64.89967    6389.7584   -2090.6857    3852.7184    306.27683     7286 
325000000   -1829.0786   -54.454919     6413.337   -2091.3002    3865.9239    307.40701     7286 
326000000   -1777.8582    44.990435    6406.3007    -2019.769    3842.6177    307.06974     7285 
327000000   -1798.3469     7.363166    6535.3174   -2081.3134    3887.0234    313.25383     7285 
328000000   -1766.1025   -28.888742    6440.7772    -2038.496    3775.7098    308.72228     7285 
329000000   -1811.6911   -26.398096    6517.4525   -2104.7249    3890.0179    312.39752     7285 
330000000   -1746.9235    7.6910195    6444.8867   -2067.3869    3822.0015    308.91926     7285 
331000000   -1768.2016   -39.891664     6427.974   -2112.9842    3841.2942     308.1086     7285 
332000000   -1734.0116    70.805979    6419.0287   -2020.3395    3825.1571    307.67983     7285 
333000000   -1771.0998    92.149545     6462.404   -1960.3064    3823.5557    309.75891     7285 
334000000   -1723.6137    67.172939    6483.7991   -2039.3704     3830.157    310.78443     7285 
335000000   -1796.9535   -49.747758    6513.4187     -2062.65    3809.8557    312.20417     7284 
336000000   -1780.2115    77.275073    6430.1403   -1989.2327    3846.7192    308.21243     7284 
337000000   -1765.3068    4.3672622    6475.7599   -2004.4383    3774.1123    310.39909     7284 
338000000   -1788.3083    26.009167    6441.7787   -2058.0088    3872.3262    308.77029     7284 
339000000   -1789.2828   -26.243196    6516.4784   -2079.8772    3842.9168    312.35083     7284 
340000000    -1794.421    18.000213    6403.3664   -2039.4085    3851.8297    306.92909     7284 
341000000   -1763.1767    52.816665    6419.8168   -2012.2721    3828.2655     307.7176     7285 
342000000   -1719.1214    99.858174    6415.1867   -2039.0419    3858.0215    307.49567     7285 
343000000   -1726.0851     97.57245     6535.726   -2028.7649    3852.4224    313.27341     7285 
344000000   -1753.5223    200.40974    6465.7113   -1965.7579    3919.6899    309.91744     7285 
345000000   -1725.3638    97.021872    6468.6771   -1991.8201    3814.2058     310.0596     7285 
346000000   -1804.6746   -70.480677    6375.4431   -2089.8128    3824.0067    305.59066     7284 
347000000   -1736.9878     12.40766    6515.1223   -2035.5372    3784.9327    312.28583     7285 
348000000   -1727.2123   -7.0411094    6387.6917   -2094.7708     3814.942    306.17777     7285 
349000000   -1774.5593   -50.855012    6393.8804   -2082.9389    3806.6432    306.47441     7285 
350000000   -1764.8779   -18.055351    6601.5954   -2083.3887    3830.2113     316.4307     7285 
351000000   -1751.5494   -4.8625097    6472.4789   -2025.1886    3771.8754    310.24183     7285 
352000000   -1788.3276   -52.938382    6556.4512   -2036.4863    3771.8756    314.26683     7285 
353000000   -1762.1393    41.163268    6422.3559   -2020.3936    3823.6962    307.83931     7285 
354000000    -1799.179   -73.767011    6472.8657   -2051.1472    3776.5592    310.26036     7285 
355000000   -1791.7652   -60.151973    6423.9346   -2086.0784    3817.6916    307.91498     7285 
356000000   -1795.7963    10.272852    6430.0756   -1969.7621    3775.8312    308.20933     7285 
357000000   -1730.3454   -2.7070767    6466.0307   -2079.9354    3807.5737    309.93275     7285 
358000000   -1777.9203   -93.866824    6509.5009   -2083.5103    3767.5638    312.01638     7285 
359000000   -1817.3224   -13.495831    6486.4587   -2031.1271    3834.9537    310.91191     7285 
360000000   -1798.4755   -21.786807    6468.6767   -2063.8067    3840.4954    310.05958     7285 
361000000   -1802.8108   -48.586812    6486.0494   -2081.6438    3835.8677     310.8923     7285 
362000000   -1817.0477    -9.632429    6509.6462    -2064.168    3871.5832    312.02335     7285 
363000000   -1814.1864   -31.083274    6500.5261   -2056.8051    3839.9083     311.5862     7285 
364000000   -1772.1254   -105.98755    6536.3598   -2131.4063    3797.5441     313.3038     7285 
365000000   -1788.5411   -26.225359    6428.0136   -2090.3282    3852.6439    308.11049     7285 
366000000   -1763.6701    -13.68652    6394.8213   -2071.0985    3821.0822    306.51951     7284 
367000000   -1770.9779   -6.1453857    6532.3077     -1974.65    3739.4825    313.10957     7284 
368000000   -1769.6485    64.153226    6430.0112   -2020.5185    3854.3202    308.20625     7284 
369000000   -1766.6174   -13.289109    6519.6018   -2080.8199    3834.1482    312.50054     7285 
370000000   -1838.0959   -25.130217    6554.1274    -2062.992    3875.9578    314.15544     7285 
371000000   -1816.4964   -95.878414    6408.0916   -2037.5968    3758.2148    307.15558     7286 
372000000     -1797.71    -31.73484    6396.0657   -2061.2983    3827.2734    306.57915     7286 
373000000    -1834.482   -84.073084    6514.9781   -2100.2452    3850.6542    312.27892     7287 
374000000   -1776.9871   -15.740263    6439.4857   -2071.0847    3832.3316    308.66038     7287 
375000000   -1789.0386   -27.962875    6410.7977   -2084.9174    3845.9931    307.28529     7287 
376000000   -1786.3214   -99.583001     6358.225    -2120.213    3806.9514    304.76536     7289 
377000000   -1711.5676    47.779341    6506.3713   -2069.0558    3828.4027    311.86637     7289 
378000000   -1803.6981   -144.76357    6501.4881   -2141.2008    3800.1353    311.63231     7289 
379000000   -1830.4227   -54.184077     6508.849   -2089.4781    3865.7167    311.98513     7289 
380000000   -1759.1667    14.023794    6541.2046    -2090.161    3863.3515    313.53602     7289 
381000000   -1750.3356     1.016396    6528.2912   -2075.7683    3827.1202    312.91705     7289 
382000000   -1788.4212   -61.455604     6447.243   -2116.5206    3843.4862    309.03221     7289 
383000000   -1768.4062     18.85906    6555.7329    -2067.403    3854.6683     314.2324     7289 
384000000   -1777.3619   -86.170312    6484.0047    -2112.286    3803.4776    310.79429     7289 
385000000   -1746.3147    5.7967962     6408.281   -2095.3733    3847.4848    307.16466     7289 
386000000   -1756.3453   -81.537574    6374.0494   -2174.2943     3849.102    305.52386     7289 
387000000   -1785.5859   -28.854933    6401.5209   -2075.8668    3832.5979    306.84063     7289 
388000000   -1774.2644   -101.47435    6516.5693   -2174.2587    3847.0488    312.35519     7289 
389000000   -1818.1732   -29.586634    6531.8012   -2116.6132    3905.1997    313.08529     7288 
390000000   -1827.9558   -13.037667    6417.6091   -2058.9706    3873.8888    307.61178     7288 
391000000   -1855.8542   -58.736875    6531.2767   -2051.9539    3849.0712    313.06015     7288 
392000000   -1836.1439   -30.751554    6506.0292   -2054.6035    3859.9959    311.84998     7288 
393000000   -1734.4398    90.596293    6492.4265   -2063.5756    3888.6117    311.19796     7288 
394000000   -1750.7617    122.33365    6498.9544   -1983.3294    3856.4248    311.51086     7288 
395000000   -1744.2284    95.137457    6413.8759   -2046.9654    3886.3312    307.43284     7288 
396000000   -1790.4602   -44.632845    6504.0658   -2201.6722    3947.4996    311.75586     7287 
397000000    -1821.645    11.112603    6457.0302   -2114.4106    3947.1681    309.50133     7287 
398000000   -1799.1232    80.078343    6426.4767    -2014.328    3893.5295    308.03683     7288 
399000000   -1812.0331     21.48341    6354.3207   -2065.8874    3899.4038    304.57821     7288 
400000000    -1781.648    49.657943    6533.1566   -2036.8084    3868.1143    313.15026     7288 
Loop time of 21599.6 on 14 procs for 100000000 steps with 7000 atoms

Performance: 12000.195 ns/day, 0.002 hours/ns, 4629.705 timesteps/s
99.6% CPU use with 14 MPI tasks x no OpenMP threads

MPI task timing breakdown:
Section |  min time  |  avg time  |  max time  |%varavg| %total
---------------------------------------------------------------
Pair    | 4118.1     | 4834.1     | 5742.5     | 666.0 | 22.38
Bond    | 1109.2     | 1162.1     | 1217.6     | 128.9 |  5.38
Neigh   | 3877.5     | 3902.2     | 3947.1     |  32.7 | 18.07
Comm    | 5666.1     | 6693.4     | 7570.7     | 676.4 | 30.99
Output  | 0.4593     | 0.45941    | 0.45945    |   0.0 |  0.00
Modify  | 3926.3     | 4039.7     | 4165.6     | 129.7 | 18.70
Other   |            | 967.7      |            |       |  4.48

Nlocal:    500 ave 530 max 470 min
Histogram: 2 0 1 0 4 3 0 2 1 1
Nghost:    692.143 ave 923 max 516 min
Histogram: 3 2 3 0 0 1 1 0 2 2
Neighs:    6395.57 ave 7401 max 5152 min
Histogram: 1 0 4 0 0 1 3 2 0 3

Total # of neighbors = 89538
Ave neighs/atom = 12.7911
Ave special neighs/atom = 7.19771
Neighbor list builds = 6125584
Dangerous builds = 0

write_restart final_state_${fName}.restart
write_restart final_state_Run2_S15N03_rlx.restart
write_data final_state_${fName}.DATA
write_data final_state_Run2_S15N03_rlx.DATA
Total wall time: 5:59:59
