
units           real
boundary p p p
atom_style      full

read_restart final_state_Relax_Es_15kT_Ens_0.3kT.restart
  restoring atom style full from restart
  orthogonal box = (-500 -500 -500) to (500 500 500)
  1 by 2 by 7 MPI processor grid
  restoring pair style lj/cut from restart
  restoring bond style hybrid from restart
  restoring angle style cosine from restart
  7000 atoms
  7284 bonds
  6600 angles
  3 = max # of 1-2 neighbors
  4 = max # of 1-3 neighbors
  8 = max # of 1-4 neighbors
  16 = max # of special neighbors
  special bonds CPU = 0.0273668 secs
  read_restart CPU = 0.170692 secs

change_box all x final -500.0 500.0 y final -500.0 500.0 z final -500.0 500.0
  orthogonal box = (-500 -500 -500) to (500 500 500)
  orthogonal box = (-500 -500 -500) to (500 500 500)
  orthogonal box = (-500 -500 -500) to (500 500 500)

neighbor 1.9 bin
neigh_modify every 1 delay 1 check yes

angle_style  cosine
angle_coeff   *  2  # K (energy unit)

bond_style 		 hybrid harmonic harmonic/shift/cut
bond_coeff   1   harmonic 3   10
bond_coeff   2   harmonic 3   10
bond_coeff   3   harmonic/shift/cut 8.883   11.22   12.72

pair_style lj/cut 25

pair_coeff  * * 0.178 10 25

special_bonds lj  0 1 1 angle yes
  3 = max # of 1-2 neighbors
  4 = max # of 1-3 neighbors
  8 = max # of 1-4 neighbors
  17072 = # of 1-3 neighbors before angle trim
  13200 = # of 1-3 neighbors after angle trim
  16 = max # of special neighbors
  special bonds CPU = 0.0021324 secs

variable t equal step
variable steps equal 100000000
variable dt_thermo equal 1000000
variable dt_movie equal 5000000
variable dt_restart equal 10000000

group rxnSites type 1 3
1000 atoms in group rxnSites

# fix ID group-ID(atom-types) bond/create Nevery itype jtype Rmin bondtype (prob values = fraction seed) (iparam maxbond newType)
fix bondc rxnSites bond/create/random 20 1 3 12.72 3 prob 1 ${seed} iparam 1 1 jparam 1 3
fix bondc rxnSites bond/create/random 20 1 3 12.72 3 prob 1 910271 iparam 1 1 jparam 1 3

# fix ID group-ID bond/break Nevery bondtype Rmax keyword values ...
fix bondbr rxnSites bond/break 20 3 12.72 prob 1 ${seed}
fix bondbr rxnSites bond/break 20 3 12.72 prob 1 910271

variable frmbnd equal f_bondc[2]
variable brkbnd equal f_bondbr[2]
fix saveBond all print ${dt_thermo} "$t ${frmbnd} ${brkbnd}" file BondData_${fName}.dat screen no
fix saveBond all print 1000000 "$t ${frmbnd} ${brkbnd}" file BondData_${fName}.dat screen no
fix saveBond all print 1000000 "$t ${frmbnd} ${brkbnd}" file BondData_Run3_S15N03_rlx.dat screen no

thermo_style    custom step epair pe ke ebond eangle temp bonds
thermo          ${dt_thermo}
thermo          1000000
fix saveThermo all print ${dt_thermo} "$t $(temp) $(ke) $(pe) $(epair) $(ebond) $(eangle) $(bonds)" file Thermo_${fName}.dat title "# Steps Temp KinEng PotEng Epair Ebond Eangle Bonds" screen no
fix saveThermo all print 1000000 "$t $(temp) $(ke) $(pe) $(epair) $(ebond) $(eangle) $(bonds)" file Thermo_${fName}.dat title "# Steps Temp KinEng PotEng Epair Ebond Eangle Bonds" screen no
fix saveThermo all print 1000000 "$t $(temp) $(ke) $(pe) $(epair) $(ebond) $(eangle) $(bonds)" file Thermo_Run3_S15N03_rlx.dat title "# Steps Temp KinEng PotEng Epair Ebond Eangle Bonds" screen no

############################ Langevin Dynamics ###############################
fix fxlan all langevin $T $T 500 ${seed}
fix fxlan all langevin 310 $T 500 ${seed}
fix fxlan all langevin 310 310 500 ${seed}
fix fxlan all langevin 310 310 500 910271
fix fxnve all nve

comm_style tiled
fix fxbal all balance 1000 1.1 rcb # load balance for spatially heterogeneous system

timestep 30

dump coor all custom ${dt_movie} traj_${fName}.dump id type mol mass x y z xu yu zu
dump coor all custom 5000000 traj_${fName}.dump id type mol mass x y z xu yu zu
dump coor all custom 5000000 traj_Run3_S15N03_rlx.dump id type mol mass x y z xu yu zu

restart ${dt_restart} ${fName}_tp_*.restart
restart 10000000 ${fName}_tp_*.restart
restart 10000000 Run3_S15N03_rlx_tp_*.restart
run ${steps}
run 100000000
Neighbor list info ...
  update every 1 steps, delay 1 steps, check yes
  max neighbors/atom: 2000, page size: 100000
  master list distance cutoff = 26.9
  ghost atom cutoff = 26.9
  binsize = 13.45, bins = 75 75 75
  2 neighbor lists, perpetual/occasional/extra = 1 1 0
  (1) pair lj/cut, perpetual
      attributes: half, newton on
      pair build: half/bin/newton
      stencil: half/bin/3d/newton
      bin: standard
  (2) fix bond/create/random, occasional, copy from (1)
      attributes: half, newton on
      pair build: copy
      stencil: none
      bin: none
Per MPI rank memory allocation (min/avg/max) = 10.34 | 10.75 | 11.7 Mbytes
Step E_pair PotEng KinEng E_bond E_angle Temp Bonds 
300000000   -1804.6994    34.220968    6462.0797   -2029.0024    3867.9227    309.74337     7284 
301000000   -1776.2145   -142.43609    6416.6051   -2128.7518    3762.5302    307.56366     7285 
302000000   -1818.9468   -66.337241    6489.9251   -2107.0995    3859.7091    311.07807     7285 
303000000   -1854.9409   -88.648499    6532.0627   -2024.4226     3790.715    313.09782     7285 
304000000   -1856.0326   -90.544863    6569.0792   -2049.4156    3814.9033    314.87211     7285 
305000000   -1801.6479   -2.1772721    6389.2661   -2093.8213    3893.2919    306.25323     7285 
306000000   -1778.0008    -10.91047     6540.049   -2042.7079    3809.7982    313.48063     7285 
307000000   -1750.6905   -79.073311     6453.781   -2072.5845    3744.2017    309.34559     7285 
308000000    -1779.644   -50.575394    6485.8684   -2040.5634     3769.632    310.88362     7285 
309000000   -1814.6787   -81.758579    6486.3467   -2047.1227    3780.0428    310.90654     7285 
310000000   -1745.1212    96.347594    6489.2413    -2023.089    3864.5577    311.04529     7284 
311000000   -1779.6174   -97.272178    6468.1976   -2115.1418     3797.487    310.03661     7285 
312000000   -1761.5437     22.80202    6399.5146   -2035.2004    3819.5461    306.74447     7285 
313000000   -1748.0097   -83.588184    6502.1583   -2121.3814     3785.803    311.66443     7285 
314000000   -1754.1023   -102.87915    6480.1345   -2057.9831    3709.2063    310.60878     7285 
315000000   -1770.6495   -4.0492949    6387.9056   -2038.4751    3805.0754    306.18802     7285 
316000000   -1746.1053    30.531002    6389.3238   -2054.7305    3831.3669      306.256     7285 
317000000   -1780.5904   -46.695064    6518.0817   -2098.7762    3832.6715    312.42768     7285 
318000000   -1791.8311    104.33829    6418.1287   -1991.9261    3888.0955    307.63669     7285 
319000000   -1792.2726   -22.614486    6488.8843   -2084.5583    3854.2164    311.02818     7285 
320000000   -1754.8183   -38.991748    6633.0775   -2062.5186    3778.3451    317.93971     7285 
321000000   -1826.5244   -77.566026    6368.5414   -2039.1415    3788.0999    305.25985     7285 
322000000   -1752.7844    119.00487    6416.7572   -2059.3561    3931.1454    307.57095     7285 
323000000   -1771.1274   0.93340184    6455.2809   -2058.1921    3830.2529    309.41748     7285 
324000000   -1780.0652   -32.961483    6549.2733   -2095.1427    3842.2464    313.92277     7286 
325000000   -1768.0833    29.619263    6524.3657   -2022.9585     3820.661    312.72889     7286 
326000000   -1771.0028   -39.624009     6412.148   -2060.1902    3791.5689    307.35002     7286 
327000000   -1777.3266   -62.371627    6456.5765   -2092.7907    3807.7457    309.47958     7286 
328000000   -1839.5229    53.619522    6389.2321   -2063.2016     3956.344     306.2516     7286 
329000000   -1793.8836   -4.6680887    6491.6475   -2049.3924    3838.6079    311.16062     7286 
330000000   -1774.7157   -34.728299    6363.6999   -2046.8039    3786.7913    305.02778     7286 
331000000   -1777.3193   -81.348484    6345.4811    -2150.853    3846.8238    304.15451     7286 
332000000   -1774.6415    -108.5162    6515.3523   -2141.5346    3807.6599    312.29685     7286 
333000000   -1760.8203  -0.52281149    6401.4822   -2066.5104    3826.8079    306.83878     7285 
334000000   -1739.9023   -74.039153     6553.191   -2069.5447    3735.4079    314.11055     7286 
335000000   -1785.1016    -104.9373    6410.7501   -2088.3704    3768.5347    307.28301     7286 
336000000   -1782.5224    -17.00295    6524.7723   -2108.5614    3874.0808    312.74838     7286 
337000000   -1735.4924   -55.478022    6408.8262   -2139.6912    3819.7056     307.1908     7286 
338000000   -1777.1862  -0.81027015    6529.4156   -2080.4564    3856.8323    312.97094     7286 
339000000   -1824.1194   -61.978818    6508.0546   -2079.7438    3841.8844    311.94706     7286 
340000000   -1795.3691    35.268259    6504.7969    -2003.819    3834.4564    311.79091     7286 
341000000   -1810.1923   -95.583795    6473.9711   -2005.8389    3720.4474    310.31335     7286 
342000000   -1757.6083   -66.261931     6459.592   -2040.6068    3731.9531    309.62413     7286 
343000000   -1758.4212   -48.203909    6572.1102   -2117.5912    3827.8086     315.0174     7286 
344000000   -1752.7992    -31.62942    6406.5901   -2124.7764    3845.9462    307.08361     7286 
345000000   -1781.3057   -13.296834    6533.0274   -2071.6872     3839.696    313.14407     7286 
346000000   -1769.5087   -33.915738    6482.3845    -2119.764     3855.357    310.71662     7286 
347000000   -1775.2547     83.68026    6482.9459   -2038.0705    3897.0055    310.74353     7286 
348000000   -1812.0605   -71.644223    6508.7591     -2056.35    3796.7662    311.98082     7286 
349000000   -1808.4552   -42.553615    6479.7854   -2104.9528    3870.8543    310.59204     7286 
350000000   -1810.9121    -30.59864    6573.0004   -2046.3482    3826.6617    315.06007     7286 
351000000   -1809.4732   -74.846731    6415.3845   -2094.0697    3828.6962    307.50515     7286 
352000000   -1784.6903    39.511038    6529.0687   -2047.2951    3871.4965    312.95432     7286 
353000000   -1781.9515   -39.258243    6538.2847   -2050.8104    3793.5037    313.39606     7286 
354000000   -1759.3341   -2.5862748    6622.4485   -2071.5099    3828.2577    317.43024     7286 
355000000   -1836.9398   -181.21284    6345.1593   -2135.2308    3790.9577    304.13909     7286 
356000000    -1805.996   -81.534749    6526.0405   -2074.8618     3799.323    312.80916     7286 
357000000   -1786.8542   -102.00303    6525.2559   -2091.5344    3776.3855    312.77156     7286 
358000000   -1817.1191   -114.35151    6516.5716   -2110.8074     3813.575     312.3553     7286 
359000000   -1840.1147   -62.070742    6519.3987   -2145.4944    3923.5384    312.49081     7286 
360000000   -1823.9859   -109.72707    6501.2098   -2083.5644    3797.8232    311.61897     7286 
361000000   -1806.6492    7.2721375    6439.4504    -2015.954    3829.8754    308.65869     7286 
362000000   -1789.5945     1.848983    6373.2477   -2087.4801    3878.9236    305.48543     7286 
363000000   -1797.1433   -16.798262    6445.5131   -2026.0155    3806.3606    308.94929     7286 
364000000   -1771.8565   -71.248971    6478.5598   -2110.7635     3811.371     310.5333     7286 
365000000   -1771.0684   -95.506296    6450.3318   -2073.7098     3749.272    309.18026     7286 
366000000   -1769.2675    13.155314    6455.0856   -2045.7848    3828.2076    309.40812     7286 
367000000   -1792.2179   -26.269118    6452.6499     -2111.32    3877.2687    309.29137     7286 
368000000   -1837.1631   -10.884845    6494.4912   -2039.3216    3865.5999    311.29693     7286 
369000000   -1796.0127   -39.540009    6366.0886   -2049.4657    3805.9384    305.14228     7286 
370000000   -1793.9795   -9.7037346    6563.1734   -2063.8451    3848.1208    314.58903     7286 
371000000   -1792.9329    2.3880041    6537.2524   -2086.6243    3881.9452    313.34658     7286 
372000000   -1806.9086    -63.93511    6408.5113   -2082.7972    3825.7707     307.1757     7286 
373000000   -1807.5521   -119.53607     6536.658   -2153.0102    3841.0262    313.31809     7286 
374000000   -1779.2506   -36.098091    6459.2746   -2087.2308    3830.3832    309.60891     7286 
375000000   -1784.4819   -35.261593    6438.5083   -2054.7801    3804.0004    308.61353     7287 
376000000   -1794.6598   -67.089976    6438.3084   -2077.8238    3805.3936    308.60395     7287 
377000000    -1813.877   -86.071533    6532.8606   -2116.6373    3844.4428    313.13607     7287 
378000000   -1787.1442   -58.671959    6307.5348   -2049.8379    3778.3101    302.33565     7287 
379000000   -1843.0231   -28.555139    6440.1708   -2097.8777    3912.3456    308.69322     7288 
380000000   -1804.6882   -88.574193    6382.5455    -2055.672     3771.786     305.9311     7286 
381000000   -1823.3582   -51.341656    6426.0492   -2093.0428    3865.0593    308.01634     7288 
382000000   -1789.6954   -24.280083    6570.5467   -2114.8441    3880.2594    314.94245     7288 
383000000   -1842.1745   -77.336226     6471.499   -2088.2716    3853.1099    310.19486     7288 
384000000   -1768.5987   -115.53163    6495.5514   -2098.9413    3752.0083    311.34775     7288 
385000000   -1815.6125   -120.92412    6452.5366   -2115.1879    3809.8762    309.28594     7288 
386000000   -1789.9723   -2.4481926    6420.2837   -2041.0209    3828.5451    307.73998     7288 
387000000   -1779.6152   -18.146285    6411.2314   -2074.7272    3836.1961    307.30609     7288 
388000000   -1848.9146   -142.64347    6447.3057   -2126.2608    3832.5319    309.03521     7288 
389000000   -1836.2092   -18.896874    6489.3273   -2079.0939    3896.4063    311.04941     7288 
390000000   -1814.1476   -37.845785    6571.2253   -2096.8548    3873.1566    314.97499     7288 
391000000   -1778.8196   -86.032334    6513.1398   -2156.0972    3848.8844     312.1908     7288 
392000000    -1819.797    -73.95244      6444.87   -2022.9415     3768.786    308.91846     7288 
393000000   -1831.1131   -28.673945    6418.8693   -2053.3243    3855.7634    307.67219     7288 
394000000   -1877.4725   -189.04422    6419.1143   -2115.1372    3803.5655    307.68393     7288 
395000000    -1847.032   -92.552586    6323.2313   -2093.6133    3848.0927    303.08802     7288 
396000000   -1783.6879    47.318544    6406.5087   -2021.8866     3852.893    307.07971     7288 
397000000   -1796.0811   -42.008993    6426.1078   -2069.5299     3823.602    308.01915     7288 
398000000   -1828.9556   -24.589985    6430.6579   -2103.7281    3908.0937    308.23724     7288 
399000000   -1778.8147    6.7816689    6490.2147   -2069.3001    3854.8965    311.09195     7288 
400000000   -1783.3644   -61.909311    6382.5528   -2045.4613    3766.9164    305.93145     7287 
Loop time of 23013.5 on 14 procs for 100000000 steps with 7000 atoms

Performance: 11262.937 ns/day, 0.002 hours/ns, 4345.269 timesteps/s
99.6% CPU use with 14 MPI tasks x no OpenMP threads

MPI task timing breakdown:
Section |  min time  |  avg time  |  max time  |%varavg| %total
---------------------------------------------------------------
Pair    | 3991.1     | 4707       | 5558.4     | 644.2 | 20.45
Bond    | 1064.4     | 1122.8     | 1208.7     | 154.5 |  4.88
Neigh   | 3850.2     | 3882.4     | 3931.3     |  37.5 | 16.87
Comm    | 6516.3     | 7575.7     | 8780.1     | 683.2 | 32.92
Output  | 0.46045    | 0.46063    | 0.4609     |   0.0 |  0.00
Modify  | 4079       | 4223       | 4440.4     | 196.8 | 18.35
Other   |            | 1502       |            |       |  6.53

Nlocal:    500 ave 522 max 463 min
Histogram: 1 0 1 2 0 3 2 0 1 4
Nghost:    692.857 ave 878 max 530 min
Histogram: 2 4 0 0 1 0 3 0 2 2
Neighs:    6437.79 ave 7553 max 5450 min
Histogram: 2 2 1 1 1 2 2 0 2 1

Total # of neighbors = 90129
Ave neighs/atom = 12.8756
Ave special neighs/atom = 7.17286
Neighbor list builds = 6126253
Dangerous builds = 0

write_restart final_state_${fName}.restart
write_restart final_state_Run3_S15N03_rlx.restart
write_data final_state_${fName}.DATA
write_data final_state_Run3_S15N03_rlx.DATA
Total wall time: 6:23:34
