
units           real
boundary p p p
atom_style      full

read_restart final_state_Relax_Es_15kT_Ens_0.3kT.restart
  restoring atom style full from restart
  orthogonal box = (-500 -500 -500) to (500 500 500)
  1 by 2 by 7 MPI processor grid
  restoring pair style lj/cut from restart
  restoring bond style hybrid from restart
  restoring angle style cosine from restart
  7000 atoms
  7284 bonds
  6600 angles
  3 = max # of 1-2 neighbors
  4 = max # of 1-3 neighbors
  8 = max # of 1-4 neighbors
  16 = max # of special neighbors
  special bonds CPU = 0.00125666 secs
  read_restart CPU = 0.00953878 secs

change_box all x final -500.0 500.0 y final -500.0 500.0 z final -500.0 500.0
  orthogonal box = (-500 -500 -500) to (500 500 500)
  orthogonal box = (-500 -500 -500) to (500 500 500)
  orthogonal box = (-500 -500 -500) to (500 500 500)

neighbor 1.9 bin
neigh_modify every 1 delay 1 check yes

angle_style  cosine
angle_coeff   *  2  # K (energy unit)

bond_style 		 hybrid harmonic harmonic/shift/cut
bond_coeff   1   harmonic 3   10
bond_coeff   2   harmonic 3   10
bond_coeff   3   harmonic/shift/cut 8.883   11.22   12.72

pair_style lj/cut 25

pair_coeff  * * 0.178 10 25

special_bonds lj  0 1 1 angle yes
  3 = max # of 1-2 neighbors
  4 = max # of 1-3 neighbors
  8 = max # of 1-4 neighbors
  17072 = # of 1-3 neighbors before angle trim
  13200 = # of 1-3 neighbors after angle trim
  16 = max # of special neighbors
  special bonds CPU = 0.00115468 secs

variable t equal step
variable steps equal 100000000
variable dt_thermo equal 1000000
variable dt_movie equal 5000000
variable dt_restart equal 10000000

group rxnSites type 1 3
1000 atoms in group rxnSites

# fix ID group-ID(atom-types) bond/create Nevery itype jtype Rmin bondtype (prob values = fraction seed) (iparam maxbond newType)
fix bondc rxnSites bond/create/random 20 1 3 12.72 3 prob 1 ${seed} iparam 1 1 jparam 1 3
fix bondc rxnSites bond/create/random 20 1 3 12.72 3 prob 1 956636 iparam 1 1 jparam 1 3

# fix ID group-ID bond/break Nevery bondtype Rmax keyword values ...
fix bondbr rxnSites bond/break 20 3 12.72 prob 1 ${seed}
fix bondbr rxnSites bond/break 20 3 12.72 prob 1 956636

variable frmbnd equal f_bondc[2]
variable brkbnd equal f_bondbr[2]
fix saveBond all print ${dt_thermo} "$t ${frmbnd} ${brkbnd}" file BondData_${fName}.dat screen no
fix saveBond all print 1000000 "$t ${frmbnd} ${brkbnd}" file BondData_${fName}.dat screen no
fix saveBond all print 1000000 "$t ${frmbnd} ${brkbnd}" file BondData_Run5_S15N03_rlx.dat screen no

thermo_style    custom step epair pe ke ebond eangle temp bonds
thermo          ${dt_thermo}
thermo          1000000
fix saveThermo all print ${dt_thermo} "$t $(temp) $(ke) $(pe) $(epair) $(ebond) $(eangle) $(bonds)" file Thermo_${fName}.dat title "# Steps Temp KinEng PotEng Epair Ebond Eangle Bonds" screen no
fix saveThermo all print 1000000 "$t $(temp) $(ke) $(pe) $(epair) $(ebond) $(eangle) $(bonds)" file Thermo_${fName}.dat title "# Steps Temp KinEng PotEng Epair Ebond Eangle Bonds" screen no
fix saveThermo all print 1000000 "$t $(temp) $(ke) $(pe) $(epair) $(ebond) $(eangle) $(bonds)" file Thermo_Run5_S15N03_rlx.dat title "# Steps Temp KinEng PotEng Epair Ebond Eangle Bonds" screen no

############################ Langevin Dynamics ###############################
fix fxlan all langevin $T $T 500 ${seed}
fix fxlan all langevin 310 $T 500 ${seed}
fix fxlan all langevin 310 310 500 ${seed}
fix fxlan all langevin 310 310 500 956636
fix fxnve all nve

comm_style tiled
fix fxbal all balance 1000 1.1 rcb # load balance for spatially heterogeneous system

timestep 30

dump coor all custom ${dt_movie} traj_${fName}.dump id type mol mass x y z xu yu zu
dump coor all custom 5000000 traj_${fName}.dump id type mol mass x y z xu yu zu
dump coor all custom 5000000 traj_Run5_S15N03_rlx.dump id type mol mass x y z xu yu zu

restart ${dt_restart} ${fName}_tp_*.restart
restart 10000000 ${fName}_tp_*.restart
restart 10000000 Run5_S15N03_rlx_tp_*.restart
run ${steps}
run 100000000
Neighbor list info ...
  update every 1 steps, delay 1 steps, check yes
  max neighbors/atom: 2000, page size: 100000
  master list distance cutoff = 26.9
  ghost atom cutoff = 26.9
  binsize = 13.45, bins = 75 75 75
  2 neighbor lists, perpetual/occasional/extra = 1 1 0
  (1) pair lj/cut, perpetual
      attributes: half, newton on
      pair build: half/bin/newton
      stencil: half/bin/3d/newton
      bin: standard
  (2) fix bond/create/random, occasional, copy from (1)
      attributes: half, newton on
      pair build: copy
      stencil: none
      bin: none
Per MPI rank memory allocation (min/avg/max) = 10.34 | 10.75 | 11.7 Mbytes
Step E_pair PotEng KinEng E_bond E_angle Temp Bonds 
300000000   -1804.6994    34.220968    6462.0797   -2029.0024    3867.9227    309.74337     7284 
301000000   -1803.8879   -45.283784    6531.9894   -2076.8663    3835.4705    313.09431     7284 
302000000   -1812.4438    30.442444    6518.8417   -2032.7359    3875.6221    312.46411     7284 
303000000   -1812.1073    23.151995    6480.4967   -2039.6246    3874.8839    310.62614     7284 
304000000   -1784.5571   -6.9816647     6397.619    -2077.574    3855.1494    306.65361     7284 
305000000   -1778.1105    14.439598    6499.5383   -2070.8541    3863.4042    311.53885     7285 
306000000   -1811.5697   -18.612224    6497.6649   -2084.7278    3877.6853    311.44905     7285 
307000000   -1815.2453    5.2780673     6586.739   -2032.0795    3852.6029    315.71859     7285 
308000000    -1792.385    -44.10924    6386.9429   -2089.5025    3837.7783    306.14188     7285 
309000000   -1781.3527   -3.9514728    6396.6299   -2055.6186    3833.0198     306.6062     7285 
310000000   -1784.7911   -42.263943    6483.6609   -2055.9906    3798.5177    310.77781     7285 
311000000   -1835.5507   -19.327588    6566.0243   -2008.0214    3824.2445    314.72569     7285 
312000000   -1815.7342   -48.930988    6453.6525    -2027.959    3794.7621    309.33943     7284 
313000000   -1799.7442   -24.606344     6512.269    -2057.229    3832.3668    312.14906     7284 
314000000   -1803.1219   -26.428824     6504.832   -2043.2769    3819.9699    311.79259     7284 
315000000   -1802.7523   -33.641606    6566.2255   -2055.5892       3824.7    314.73533     7285 
316000000   -1809.7643    112.98008    6477.7023   -1946.3209    3869.0653     310.4922     7285 
317000000   -1801.9815   -35.946212    6571.0266   -2049.3038    3815.3391    314.96546     7285 
318000000    -1774.914   -60.217749     6400.531    -2068.997    3783.6932    306.79318     7285 
319000000   -1702.3754    98.865168    6361.5671   -2035.9856    3837.2262    304.92555     7285 
320000000   -1796.2289    10.494235    6462.9756    -2045.834    3852.5571    309.78631     7285 
321000000   -1767.8183   -10.354174    6453.3469   -2087.9106    3845.3747    309.32478     7285 
322000000   -1762.3158   -76.347486    6357.3589   -2085.5046    3771.4729    304.72384     7285 
323000000   -1786.9876    56.129705     6384.344   -2064.9744    3908.0916     306.0173     7285 
324000000    -1713.029    12.924426    6406.6467   -2065.0948    3791.0483    307.08633     7285 
325000000   -1765.9049   -34.251424    6432.8493   -2066.7643    3798.4177    308.34228     7285 
326000000   -1809.9862   -38.033771    6476.3819   -2055.1405    3827.0928    310.42891     7285 
327000000   -1756.7505    41.327316    6588.8434   -2047.9413    3846.0191    315.81946     7285 
328000000   -1817.6851   -151.55555    6468.9491   -2053.8134    3719.9429    310.07263     7285 
329000000   -1804.9182   -102.74466     6454.865   -2077.1033    3779.2768    309.39755     7285 
330000000   -1813.8637   -47.390343    6467.6848    -2077.613    3844.0864    310.01203     7285 
331000000   -1773.8828   -35.520309    6457.2235   -2055.3411    3793.7036     309.5106     7285 
332000000   -1851.7519    14.947065    6577.4354   -2004.7409    3871.4399    315.27265     7285 
333000000   -1840.1128    89.994091     6386.207   -2008.4888    3938.5957     306.1066     7285 
334000000   -1767.5796    54.133857    6418.1074   -2034.8075    3856.5209    307.63567     7285 
335000000   -1746.7613    135.88068    6425.5247   -2031.4682    3914.1103    307.99119     7285 
336000000   -1742.5902    34.722921    6557.4873   -2027.7853    3805.0984    314.31649     7285 
337000000   -1804.6264   -164.98356    6541.3449   -2089.3269    3728.9697    313.54274     7285 
338000000   -1831.8633    40.222219    6447.6098    -2052.589    3924.6744    309.04979     7285 
339000000   -1810.6265    2.4240724    6402.7919   -2102.8226    3915.8731    306.90156     7285 
340000000   -1802.1843     30.35969    6443.9007   -2003.8309    3836.3749      308.872     7285 
341000000   -1818.4988   -127.34957    6397.8388   -2086.2947     3777.444    306.66414     7285 
342000000   -1852.1224   -47.383399    6495.6405    -2061.989     3866.728    311.35202     7285 
343000000   -1800.9373   -96.691931    6571.7667   -2104.0445    3808.2899    315.00093     7286 
344000000   -1790.9903    101.18743    6539.9355   -1995.4776    3887.6554    313.47519     7286 
345000000   -1830.2062   -20.008405    6336.8589     -2008.16    3818.3579    303.74123     7286 
346000000   -1785.0965   -40.251748    6452.8018   -2075.8407    3820.6855    309.29866     7286 
347000000   -1759.2679    3.6299724    6532.4989   -2053.7552     3816.653    313.11873     7286 
348000000   -1840.8621   -75.261967    6406.1833    -2090.365    3855.9651    307.06412     7287 
349000000   -1789.4202    87.661702    6480.3659   -2029.0778    3906.1597    310.61987     7287 
350000000   -1766.6901    70.293856    6448.3165   -2036.4916    3873.4755    309.08366     7287 
351000000   -1791.6328   -73.815266     6504.755   -2136.0457    3853.8632     311.7889     7287 
352000000   -1757.4529   -8.4025419    6394.0816   -2044.2707    3793.3211    306.48405     7287 
353000000   -1751.8988    33.128794    6517.0536    -2040.285    3825.3126     312.3784     7287 
354000000   -1740.8774     31.18508    6482.3688   -2088.9827    3861.0452    310.71587     7287 
355000000   -1748.4825   -75.854885    6521.4522   -2185.1647    3857.7922    312.58924     7287 
356000000   -1784.3594   -8.2031901    6443.6431   -2077.7136    3853.8698    308.85965     7287 
357000000   -1821.5612   -49.498214    6381.9028   -2083.4159    3855.4789    305.90029     7287 
358000000   -1751.3093   -24.162829    6445.1833   -2096.9364    3824.0829    308.93348     7287 
359000000   -1769.2082     45.56146    6413.1937   -2030.2645    3845.0341    307.40014     7287 
360000000   -1787.1213     59.61085    6490.7316   -2041.8335    3888.5657    311.11672     7287 
361000000   -1768.3919    51.983665    6387.9721    -2061.706    3882.0816    306.19121     7287 
362000000   -1812.4646   -53.240355     6562.863   -2114.2496    3873.4738    314.57416     7288 
363000000   -1746.7563    34.512862    6469.0884   -2080.3996    3861.6687    310.07931     7288 
364000000   -1833.5952   -54.913281    6449.2877    -2086.907    3865.5889    309.13021     7288 
365000000   -1753.8262   -15.132664      6453.01   -2072.1516    3810.8451    309.30864     7288 
366000000   -1737.3121    -45.59444    6495.4463   -2137.2174     3828.935    311.34271     7288 
367000000   -1760.5097    3.1042126    6486.5073   -2099.1567    3862.7706    310.91424     7288 
368000000   -1838.3231    3.1554162    6529.1199    -2037.283    3878.7615    312.95677     7288 
369000000   -1781.1926   -51.943697     6448.351   -2163.8171     3893.066    309.08532     7288 
370000000    -1800.075   -43.915354    6524.4707   -2054.2439    3810.4035    312.73392     7288 
371000000   -1834.0438   -77.729521    6524.9298    -2078.197    3834.5112    312.75593     7288 
372000000   -1836.3578   -88.529778    6452.3525   -2126.9598    3874.7878    309.27712     7288 
373000000   -1820.7258   -57.415904    6567.6754   -2095.3622    3858.6721    314.80483     7288 
374000000   -1840.4774   -72.873521     6429.386   -2132.4339    3900.0377    308.17628     7288 
375000000   -1790.5287    -84.61277    6428.1879    -2125.831    3831.7469    308.11885     7288 
376000000   -1797.1068   -3.7771418    6428.8489   -2033.8178    3827.1474    308.15053     7287 
377000000   -1792.1601    52.220475    6516.7939   -2000.1882    3844.5688    312.36595     7287 
378000000   -1841.3296    2.6745304    6427.4216   -2078.7579    3922.7621    308.08212     7287 
379000000    -1771.094   -31.001135    6622.3725    -2091.554    3831.6469    317.42659     7287 
380000000   -1828.3207   -40.545118    6492.5911   -2060.4544      3848.23    311.20585     7287 
381000000   -1820.5197   -38.558626     6550.267   -2110.5163    3892.4773     313.9704     7288 
382000000   -1807.8859    -14.21397    6427.6045   -2123.3801     3917.052    308.09089     7288 
383000000   -1760.9594   -43.706361    6398.6329   -2092.6837    3809.9368    306.70221     7288 
384000000    -1731.928   -13.832543    6372.3603   -2110.6552    3828.7507     305.4429     7288 
385000000   -1795.8084   -52.154869    6470.6168   -2044.5101    3788.1636    310.15257     7288 
386000000   -1799.1991    3.2872777     6458.496    -2102.286    3904.7723    309.57159     7288 
387000000   -1724.6924    39.005617    6351.5861    -2033.468     3797.166    304.44714     7287 
388000000   -1760.0733   -84.804425    6416.4262   -2157.0932    3832.3621    307.55508     7287 
389000000   -1763.0542   -47.094551    6469.5986   -2115.8311    3831.7908    310.10377     7288 
390000000   -1762.6978    -49.54456    6423.8281   -2113.3354    3826.4887    307.90987     7288 
391000000   -1833.6248   -52.864843    6433.3391   -2089.0949    3869.8548    308.36576     7288 
392000000    -1790.281     1.795088     6399.062   -2114.2142    3906.2903    306.72277     7288 
393000000    -1745.012    30.559107    6520.8409   -2068.1351    3843.7061    312.55994     7288 
394000000   -1807.8868   -71.901256    6533.3968   -2065.4041    3801.3897    313.16177     7288 
395000000   -1813.8018   -68.501492    6467.1618   -2116.9484    3862.2487    309.98697     7288 
396000000    -1826.041   -55.825738    6433.6909   -2078.3997     3848.615    308.38262     7288 
397000000   -1795.9944   -29.486105    6377.0174    -2076.374    3842.8823    305.66612     7288 
398000000   -1746.4266   -50.864434    6502.4237   -2046.9348     3742.497    311.67715     7288 
399000000   -1798.8997   -51.359307    6378.3686   -2092.3558    3839.8962    305.73089     7288 
400000000   -1787.4893   -12.843351    6632.6644   -2073.0017    3847.6476    317.91991     7288 
Loop time of 19374.8 on 14 procs for 100000000 steps with 7000 atoms

Performance: 13378.174 ns/day, 0.002 hours/ns, 5161.332 timesteps/s
99.6% CPU use with 14 MPI tasks x no OpenMP threads

MPI task timing breakdown:
Section |  min time  |  avg time  |  max time  |%varavg| %total
---------------------------------------------------------------
Pair    | 3981.3     | 4499.7     | 5104       | 446.2 | 23.22
Bond    | 1057.3     | 1070.7     | 1086.6     |  26.0 |  5.53
Neigh   | 3517.2     | 3536.5     | 3577       |  29.3 | 18.25
Comm    | 5117.9     | 5796.7     | 6605.2     | 521.5 | 29.92
Output  | 0.41666    | 0.4167     | 0.41683    |   0.0 |  0.00
Modify  | 3632.2     | 3653.8     | 3679       |  20.0 | 18.86
Other   |            | 817        |            |       |  4.22

Nlocal:    500 ave 523 max 475 min
Histogram: 1 1 0 1 1 5 3 0 1 1
Nghost:    707.071 ave 870 max 504 min
Histogram: 2 2 0 2 1 0 0 1 3 3
Neighs:    6454.86 ave 7717 max 5323 min
Histogram: 2 2 0 3 0 1 3 1 0 2

Total # of neighbors = 90368
Ave neighs/atom = 12.9097
Ave special neighs/atom = 7.18743
Neighbor list builds = 6125957
Dangerous builds = 0

write_restart final_state_${fName}.restart
write_restart final_state_Run5_S15N03_rlx.restart
write_data final_state_${fName}.DATA
write_data final_state_Run5_S15N03_rlx.DATA
Total wall time: 5:22:55
