
units           real
boundary p p p
atom_style      full

read_restart final_state_Relax_Es_15kT_Ens_0.3kT.restart
  restoring atom style full from restart
  orthogonal box = (-500 -500 -500) to (500 500 500)
  1 by 2 by 7 MPI processor grid
  restoring pair style lj/cut from restart
  restoring bond style hybrid from restart
  restoring angle style cosine from restart
  7000 atoms
  7284 bonds
  6600 angles
  3 = max # of 1-2 neighbors
  4 = max # of 1-3 neighbors
  8 = max # of 1-4 neighbors
  16 = max # of special neighbors
  special bonds CPU = 0.016935 secs
  read_restart CPU = 0.183547 secs

change_box all x final -500.0 500.0 y final -500.0 500.0 z final -500.0 500.0
  orthogonal box = (-500 -500 -500) to (500 500 500)
  orthogonal box = (-500 -500 -500) to (500 500 500)
  orthogonal box = (-500 -500 -500) to (500 500 500)

neighbor 1.9 bin
neigh_modify every 1 delay 1 check yes

angle_style  cosine
angle_coeff   *  2  # K (energy unit)

bond_style 		 hybrid harmonic harmonic/shift/cut
bond_coeff   1   harmonic 3   10
bond_coeff   2   harmonic 3   10
bond_coeff   3   harmonic/shift/cut 8.883   11.22   12.72

pair_style lj/cut 25

pair_coeff  * * 0.178 10 25

special_bonds lj  0 1 1 angle yes
  3 = max # of 1-2 neighbors
  4 = max # of 1-3 neighbors
  8 = max # of 1-4 neighbors
  17072 = # of 1-3 neighbors before angle trim
  13200 = # of 1-3 neighbors after angle trim
  16 = max # of special neighbors
  special bonds CPU = 0.00226525 secs

variable t equal step
variable steps equal 100000000
variable dt_thermo equal 1000000
variable dt_movie equal 5000000
variable dt_restart equal 10000000

group rxnSites type 1 3
1000 atoms in group rxnSites

# fix ID group-ID(atom-types) bond/create Nevery itype jtype Rmin bondtype (prob values = fraction seed) (iparam maxbond newType)
fix bondc rxnSites bond/create/random 20 1 3 12.72 3 prob 1 ${seed} iparam 1 1 jparam 1 3
fix bondc rxnSites bond/create/random 20 1 3 12.72 3 prob 1 804468 iparam 1 1 jparam 1 3

# fix ID group-ID bond/break Nevery bondtype Rmax keyword values ...
fix bondbr rxnSites bond/break 20 3 12.72 prob 1 ${seed}
fix bondbr rxnSites bond/break 20 3 12.72 prob 1 804468

variable frmbnd equal f_bondc[2]
variable brkbnd equal f_bondbr[2]
fix saveBond all print ${dt_thermo} "$t ${frmbnd} ${brkbnd}" file BondData_${fName}.dat screen no
fix saveBond all print 1000000 "$t ${frmbnd} ${brkbnd}" file BondData_${fName}.dat screen no
fix saveBond all print 1000000 "$t ${frmbnd} ${brkbnd}" file BondData_Run7_S15N03_rlx.dat screen no

thermo_style    custom step epair pe ke ebond eangle temp bonds
thermo          ${dt_thermo}
thermo          1000000
fix saveThermo all print ${dt_thermo} "$t $(temp) $(ke) $(pe) $(epair) $(ebond) $(eangle) $(bonds)" file Thermo_${fName}.dat title "# Steps Temp KinEng PotEng Epair Ebond Eangle Bonds" screen no
fix saveThermo all print 1000000 "$t $(temp) $(ke) $(pe) $(epair) $(ebond) $(eangle) $(bonds)" file Thermo_${fName}.dat title "# Steps Temp KinEng PotEng Epair Ebond Eangle Bonds" screen no
fix saveThermo all print 1000000 "$t $(temp) $(ke) $(pe) $(epair) $(ebond) $(eangle) $(bonds)" file Thermo_Run7_S15N03_rlx.dat title "# Steps Temp KinEng PotEng Epair Ebond Eangle Bonds" screen no

############################ Langevin Dynamics ###############################
fix fxlan all langevin $T $T 500 ${seed}
fix fxlan all langevin 310 $T 500 ${seed}
fix fxlan all langevin 310 310 500 ${seed}
fix fxlan all langevin 310 310 500 804468
fix fxnve all nve

comm_style tiled
fix fxbal all balance 1000 1.1 rcb # load balance for spatially heterogeneous system

timestep 30

dump coor all custom ${dt_movie} traj_${fName}.dump id type mol mass x y z xu yu zu
dump coor all custom 5000000 traj_${fName}.dump id type mol mass x y z xu yu zu
dump coor all custom 5000000 traj_Run7_S15N03_rlx.dump id type mol mass x y z xu yu zu

restart ${dt_restart} ${fName}_tp_*.restart
restart 10000000 ${fName}_tp_*.restart
restart 10000000 Run7_S15N03_rlx_tp_*.restart
run ${steps}
run 100000000
Neighbor list info ...
  update every 1 steps, delay 1 steps, check yes
  max neighbors/atom: 2000, page size: 100000
  master list distance cutoff = 26.9
  ghost atom cutoff = 26.9
  binsize = 13.45, bins = 75 75 75
  2 neighbor lists, perpetual/occasional/extra = 1 1 0
  (1) pair lj/cut, perpetual
      attributes: half, newton on
      pair build: half/bin/newton
      stencil: half/bin/3d/newton
      bin: standard
  (2) fix bond/create/random, occasional, copy from (1)
      attributes: half, newton on
      pair build: copy
      stencil: none
      bin: none
Per MPI rank memory allocation (min/avg/max) = 10.34 | 10.75 | 11.7 Mbytes
Step E_pair PotEng KinEng E_bond E_angle Temp Bonds 
300000000   -1804.6994    34.220968    6462.0797   -2029.0024    3867.9227    309.74337     7284 
301000000   -1782.0452    41.142026    6505.0776   -2049.1217    3872.3089    311.80436     7285 
302000000   -1797.6285    37.046778    6492.0211    -2013.307    3847.9822    311.17853     7285 
303000000   -1775.0789   -31.994162    6579.7433   -2054.1048    3797.1895    315.38327     7285 
304000000   -1776.4248    45.031784    6482.9537   -2064.1439    3885.6005    310.74391     7285 
305000000   -1759.8705  -0.12626315    6426.8843   -2023.4918    3783.2361    308.05636     7285 
306000000   -1839.4652    -31.17297    6484.2211   -2060.5347    3868.8269    310.80466     7285 
307000000   -1823.8601    12.144963    6474.3632   -2010.8744    3846.8795    310.33215     7285 
308000000   -1802.1669   -66.818543    6650.9869   -2020.3977    3755.7461    318.79816     7285 
309000000   -1803.2111    2.2816841     6408.871   -2044.3222     3849.815    307.19294     7285 
310000000   -1783.3329     184.5391    6528.8266   -1976.3931    3944.2651    312.94271     7285 
311000000   -1781.0042   -114.95803    6511.0264    -2119.217    3785.2632     312.0895     7285 
312000000   -1755.2776    69.184486    6410.1762   -2031.9067    3856.3688     307.2555     7285 
313000000   -1851.7276   -190.14914    6466.6284   -2142.1056     3803.684     309.9614     7285 
314000000    -1808.224   -44.108808    6422.0288   -2087.5955    3851.7107    307.82363     7285 
315000000   -1775.2137    2.5672425    6379.1932   -2056.9377    3834.7187    305.77041     7285 
316000000   -1778.1146    -83.52031    6583.9101    -2073.841    3768.4353      315.583     7285 
317000000   -1796.2855   -85.235265    6457.6901   -2154.8094    3865.8597    309.53296     7285 
318000000     -1772.22    5.9094363    6487.1512   -2040.3461    3818.4756    310.94511     7286 
319000000   -1776.3945    1.7252066    6423.4754   -2065.5562    3843.6758    307.89297     7286 
320000000   -1777.2705    16.480491    6483.1047   -2024.1534    3817.9044    310.75115     7286 
321000000   -1767.0556   -18.132727    6402.6993   -2063.1084    3812.0313    306.89712     7286 
322000000   -1763.7866    36.138295    6383.2594   -2062.2302    3862.1551    305.96532     7286 
323000000   -1742.2945    164.46308    6501.2854   -1976.0335    3882.7911    311.62259     7286 
324000000   -1772.0223   -46.380532    6494.8281   -2097.0492     3822.691    311.31308     7286 
325000000   -1784.0636    -10.30595    6516.5145   -2065.2243     3838.982    312.35256     7286 
326000000   -1736.9709    102.22985    6460.1924   -2017.1652    3856.3659     309.6529     7286 
327000000   -1768.3032   -84.354553    6612.4292   -2115.0195    3798.9682    316.94999     7286 
328000000   -1777.6387   -99.496442    6598.4188   -2086.4808    3764.6231    316.27844     7286 
329000000   -1795.0473   -21.942525    6519.6007   -2040.7999    3813.9047    312.50049     7286 
330000000   -1895.6949   -77.725908    6471.8199   -2112.5186    3930.4876    310.21024     7286 
331000000   -1770.5845    8.5143006    6404.7624   -2108.2368    3887.3356    306.99601     7286 
332000000   -1829.4653   -4.7946253    6521.4332   -2033.9264     3858.597    312.58832     7286 
333000000    -1769.838    131.55664    6424.0518   -1982.9418    3884.3365     307.9206     7286 
334000000   -1792.8238   -39.655884    6476.0135   -2069.6207    3822.7887    310.41125     7286 
335000000   -1810.9619   -7.2028884    6401.3129   -2058.2246    3861.9836    306.83067     7285 
336000000   -1783.8128    25.520574    6482.1104   -2086.5939    3895.9273    310.70349     7286 
337000000    -1812.221   -1.2712467    6442.9835   -1990.4928    3801.4426    308.82804     7286 
338000000   -1802.7385   -32.088672    6546.3819   -2013.0443    3783.6941    313.78418     7286 
339000000   -1797.3195   -98.048622    6502.6622   -2066.2343    3765.5051    311.68858     7286 
340000000   -1800.5356   -7.8243602    6348.0163   -2050.2831    3842.9944    304.27603     7286 
341000000   -1815.2706    15.308923    6525.1429   -2030.1401    3860.7197    312.76614     7286 
342000000   -1731.5832    86.591335    6507.1764   -2019.7803    3837.9549    311.90496     7286 
343000000   -1791.5118   -109.20186    6525.1865   -2056.5631     3738.873    312.76823     7286 
344000000   -1824.8445    34.790583    6423.5092     -2081.75    3941.3851    307.89459     7286 
345000000   -1753.0662    26.038151    6438.1126   -2051.5217     3830.626    308.59456     7286 
346000000   -1762.0338   -8.8442963    6505.5511   -2089.5983    3842.7878    311.82706     7286 
347000000   -1764.4255   -22.160742    6500.5524   -2040.4666    3782.7314    311.58746     7286 
348000000    -1778.227    56.756604    6404.4429   -2038.7033    3873.6869    306.98069     7286 
349000000   -1804.3437   -3.4114057    6482.9883   -2053.6936    3854.6259    310.74557     7286 
350000000    -1789.255   -47.081257    6472.9193   -2104.9411    3847.1148    310.26294     7286 
351000000   -1787.0483   -35.102824    6440.7889   -2042.6513    3794.5969    308.72285     7286 
352000000   -1754.7594    61.367781    6358.9494   -1990.1367    3806.2639    304.80008     7286 
353000000   -1774.3242   -16.921465    6467.6843   -2116.4856    3873.8883    310.01201     7286 
354000000    -1805.567   -93.695643    6441.3773   -2051.1812    3763.0525    308.75105     7286 
355000000   -1746.2853   -52.895702    6381.3522    -2090.577    3783.9666     305.8739     7286 
356000000    -1768.397   -12.601723    6556.9614   -2085.3777     3841.173    314.29128     7286 
357000000   -1778.2534   -100.76645    6465.2324   -2121.5805    3799.0674    309.89448     7286 
358000000   -1782.6062   -36.335203    6443.0403   -2075.8103    3822.0813    308.83076     7286 
359000000   -1782.8765    -128.5805    6485.8362   -2100.4903    3754.7864    310.88207     7286 
360000000   -1794.7421   -72.809986    6426.8992   -2106.9925    3828.9245    308.05708     7286 
361000000   -1785.1679   -83.027803    6467.1003   -2121.0148    3823.1549    309.98402     7286 
362000000   -1796.0607   -110.56133    6592.0508   -2058.5454    3744.0448     315.9732     7286 
363000000   -1774.6155   -114.43202    6481.0854   -2116.0853    3776.2688    310.65436     7286 
364000000   -1743.6951   -81.938286    6478.2796   -2046.1621    3707.9189    310.51987     7286 
365000000   -1782.1317   -87.070701    6559.1018   -2111.2286    3806.2896    314.39387     7285 
366000000   -1754.1034   -64.439097    6350.7574   -2090.8608    3780.5251    304.40742     7286 
367000000     -1769.09    49.123376    6478.5426    -2073.399    3891.6124    310.53247     7286 
368000000    -1744.146    10.250693    6591.3053   -2064.3028    3818.6995    315.93747     7286 
369000000   -1771.7527   -27.392845    6430.6691   -2092.9491    3837.3089    308.23778     7286 
370000000   -1752.9402    31.300294    6607.4124   -2018.9362    3803.1767    316.70952     7286 
371000000   -1784.9906    29.564802     6476.753   -2058.2975    3872.8529     310.4467     7286 
372000000   -1775.5094   -61.265743    6447.6666   -2149.0446    3863.2882    309.05251     7286 
373000000    -1757.324    72.344801    6532.3347   -1991.9258    3821.5946    313.11086     7286 
374000000   -1752.7674   -6.2196319     6520.927   -2102.9654    3849.5132    312.56406     7286 
375000000    -1781.694   -32.461116    6545.0153   -2074.1191     3823.352    313.71867     7286 
376000000   -1728.7999   -62.417641    6491.2083   -2069.8769    3736.2592    311.13957     7286 
377000000   -1791.6753    25.853801    6535.5396   -2019.2342    3836.7633    313.26448     7286 
378000000   -1758.0796    55.179773    6435.8992   -2066.1315    3879.3909    308.48847     7285 
379000000   -1796.5303  -0.15089194    6553.3286   -2079.0242    3875.4035    314.11715     7286 
380000000   -1741.5818    13.038325    6439.8096   -2033.4555    3788.0756    308.67591     7286 
381000000   -1791.4464   -113.80557    6498.5768   -2139.7336    3817.3745    311.49276     7286 
382000000   -1809.3542   -81.582963    6533.3771   -2035.6156    3763.3869    313.16083     7286 
383000000   -1804.7891    4.3117675    6512.6437   -2089.4088    3898.5097    312.16702     7285 
384000000    -1775.807   -102.33888    6462.8053   -2101.3326    3774.8007    309.77815     7285 
385000000   -1764.8844    90.412227    6382.0541   -2036.3642    3891.6609    305.90754     7285 
386000000   -1776.5699     2.587851    6481.6547   -2098.4789    3877.6367    310.68165     7285 
387000000   -1828.0401   -47.478825    6466.1464   -2024.6866    3805.2478    309.93829     7285 
388000000   -1810.9832   -57.487899    6431.3086   -2094.3838    3847.8791    308.26843     7285 
389000000   -1753.0654    70.618121    6569.8774   -2041.6011    3865.2846    314.91038     7285 
390000000   -1707.1461    46.642327    6484.5377   -2066.5512    3820.3395    310.81983     7285 
391000000   -1816.1139    41.761488    6489.1112   -2020.2026     3878.078    311.03905     7284 
392000000   -1750.3171     3.925309    6462.0238    -2084.135    3838.3774    309.74069     7284 
393000000   -1836.0811   -6.6348896    6378.9548   -1995.7876    3825.2338    305.75899     7284 
394000000   -1750.3724    5.1138632    6501.3843   -2076.4204    3831.9066    311.62733     7284 
395000000   -1701.4496    58.322719    6526.5648   -2029.8337     3789.606     312.8343     7283 
396000000   -1749.3116    140.74899    6510.8833   -1989.7822    3879.8428    312.08264     7284 
397000000    -1788.323   -64.819532    6554.1611    -2077.067    3800.5705    314.15705     7284 
398000000   -1738.1106   -22.909383    6481.3225   -2060.0077    3775.2089    310.66572     7284 
399000000   -1721.4465     150.9879    6491.0962   -1988.6754    3861.1098     311.1342     7284 
400000000   -1769.7504    45.492494    6496.0607   -2055.3592     3870.602    311.37216     7284 
Loop time of 23825.9 on 14 procs for 100000000 steps with 7000 atoms

Performance: 10878.930 ns/day, 0.002 hours/ns, 4197.118 timesteps/s
99.6% CPU use with 14 MPI tasks x no OpenMP threads

MPI task timing breakdown:
Section |  min time  |  avg time  |  max time  |%varavg| %total
---------------------------------------------------------------
Pair    | 4239.6     | 4688.7     | 5282.8     | 403.7 | 19.68
Bond    | 1072.8     | 1133.8     | 1192.6     | 141.0 |  4.76
Neigh   | 3750.6     | 3797.2     | 3844.6     |  44.1 | 15.94
Comm    | 7254.9     | 7991       | 9173       | 544.7 | 33.54
Output  | 0.41201    | 0.41222    | 0.41241    |   0.0 |  0.00
Modify  | 4335.4     | 4431.8     | 4519.1     | 114.5 | 18.60
Other   |            | 1783       |            |       |  7.48

Nlocal:    500 ave 526 max 468 min
Histogram: 2 0 2 1 2 0 1 2 2 2
Nghost:    694.857 ave 922 max 539 min
Histogram: 5 2 0 0 1 1 0 3 1 1
Neighs:    6426.36 ave 7489 max 5666 min
Histogram: 2 1 3 3 0 1 1 1 1 1

Total # of neighbors = 89969
Ave neighs/atom = 12.8527
Ave special neighs/atom = 7.17086
Neighbor list builds = 6126122
Dangerous builds = 0

write_restart final_state_${fName}.restart
write_restart final_state_Run7_S15N03_rlx.restart
write_data final_state_${fName}.DATA
write_data final_state_Run7_S15N03_rlx.DATA
Total wall time: 6:37:06
