
units           real
boundary p p p
atom_style      full

read_restart final_state_Relax_Es_10kT_Ens_0.5kT.restart
  restoring atom style full from restart
  orthogonal box = (-500 -500 -500) to (500 500 500)
  1 by 2 by 7 MPI processor grid
  restoring pair style lj/cut from restart
  restoring bond style hybrid from restart
  restoring angle style cosine from restart
  7000 atoms
  7283 bonds
  6600 angles
  3 = max # of 1-2 neighbors
  4 = max # of 1-3 neighbors
  8 = max # of 1-4 neighbors
  16 = max # of special neighbors
  special bonds CPU = 0.0140868 secs
  read_restart CPU = 0.177578 secs

change_box all x final -500.0 500.0 y final -500.0 500.0 z final -500.0 500.0
  orthogonal box = (-500 -500 -500) to (500 500 500)
  orthogonal box = (-500 -500 -500) to (500 500 500)
  orthogonal box = (-500 -500 -500) to (500 500 500)

neighbor 1.9 bin
neigh_modify every 1 delay 1 check yes

angle_style  cosine
angle_coeff   *  2  # K (energy unit)

bond_style 		 hybrid harmonic harmonic/shift/cut
bond_coeff   1   harmonic 3   10
bond_coeff   2   harmonic 3   10
bond_coeff   3   harmonic/shift/cut 5.922   11.22   12.72


pair_style lj/cut 25

pair_coeff  * * 0.296 10 25

special_bonds lj  0 1 1 angle yes
  3 = max # of 1-2 neighbors
  4 = max # of 1-3 neighbors
  8 = max # of 1-4 neighbors
  17064 = # of 1-3 neighbors before angle trim
  13200 = # of 1-3 neighbors after angle trim
  16 = max # of special neighbors
  special bonds CPU = 0.00193071 secs

variable t equal step
variable steps equal 100000000
variable dt_thermo equal 1000000
variable dt_movie equal 5000000
variable dt_restart equal 10000000

group rxnSites type 1 3
1000 atoms in group rxnSites

# fix ID group-ID(atom-types) bond/create Nevery itype jtype Rmin bondtype (prob values = fraction seed) (iparam maxbond newType)
fix bondc rxnSites bond/create/random 20 1 3 12.72 3 prob 1 ${seed} iparam 1 1 jparam 1 3
fix bondc rxnSites bond/create/random 20 1 3 12.72 3 prob 1 191005 iparam 1 1 jparam 1 3

# fix ID group-ID bond/break Nevery bondtype Rmax keyword values ...
fix bondbr rxnSites bond/break 20 3 12.72 prob 1 ${seed}
fix bondbr rxnSites bond/break 20 3 12.72 prob 1 191005

variable frmbnd equal f_bondc[2]
variable brkbnd equal f_bondbr[2]
fix saveBond all print ${dt_thermo} "$t ${frmbnd} ${brkbnd}" file BondData_${fName}.dat screen no
fix saveBond all print 1000000 "$t ${frmbnd} ${brkbnd}" file BondData_${fName}.dat screen no
fix saveBond all print 1000000 "$t ${frmbnd} ${brkbnd}" file BondData_Run1_S10N05_rlx.dat screen no

thermo_style    custom step epair pe ke ebond eangle temp bonds
thermo          ${dt_thermo}
thermo          1000000
fix saveThermo all print ${dt_thermo} "$t $(temp) $(ke) $(pe) $(epair) $(ebond) $(eangle) $(bonds)" file Thermo_${fName}.dat title "# Steps Temp KinEng PotEng Epair Ebond Eangle Bonds" screen no
fix saveThermo all print 1000000 "$t $(temp) $(ke) $(pe) $(epair) $(ebond) $(eangle) $(bonds)" file Thermo_${fName}.dat title "# Steps Temp KinEng PotEng Epair Ebond Eangle Bonds" screen no
fix saveThermo all print 1000000 "$t $(temp) $(ke) $(pe) $(epair) $(ebond) $(eangle) $(bonds)" file Thermo_Run1_S10N05_rlx.dat title "# Steps Temp KinEng PotEng Epair Ebond Eangle Bonds" screen no

############################ Langevin Dynamics ###############################
fix fxlan all langevin $T $T 500 ${seed}
fix fxlan all langevin 310 $T 500 ${seed}
fix fxlan all langevin 310 310 500 ${seed}
fix fxlan all langevin 310 310 500 191005
fix fxnve all nve

comm_style tiled
fix fxbal all balance 1000 1.1 rcb # load balance for spatially heterogeneous system

timestep 30

dump coor all custom ${dt_movie} traj_${fName}.dump id type mol mass x y z xu yu zu
dump coor all custom 5000000 traj_${fName}.dump id type mol mass x y z xu yu zu
dump coor all custom 5000000 traj_Run1_S10N05_rlx.dump id type mol mass x y z xu yu zu

restart ${dt_restart} ${fName}_tp_*.restart
restart 10000000 ${fName}_tp_*.restart
restart 10000000 Run1_S10N05_rlx_tp_*.restart
run ${steps}
run 100000000
Neighbor list info ...
  update every 1 steps, delay 1 steps, check yes
  max neighbors/atom: 2000, page size: 100000
  master list distance cutoff = 26.9
  ghost atom cutoff = 26.9
  binsize = 13.45, bins = 75 75 75
  2 neighbor lists, perpetual/occasional/extra = 1 1 0
  (1) pair lj/cut, perpetual
      attributes: half, newton on
      pair build: half/bin/newton
      stencil: half/bin/3d/newton
      bin: standard
  (2) fix bond/create/random, occasional, copy from (1)
      attributes: half, newton on
      pair build: copy
      stencil: none
      bin: none
Per MPI rank memory allocation (min/avg/max) = 10.32 | 10.75 | 11.78 Mbytes
Step E_pair PotEng KinEng E_bond E_angle Temp Bonds 
400000000   -4811.3255   -1250.4799    6427.2076   -619.69659    4180.5422    308.07186     7283 
401000000   -4869.4637   -1205.0326    6507.1866   -581.43483     4245.866    311.90545     7281 
402000000   -4918.5222    -1406.412    6464.7323   -618.60293    4130.7131    309.87051     7280 
403000000   -4977.4745    -1386.022    6514.3314   -565.61643     4157.069    312.24792     7280 
404000000   -5048.9234   -1563.8091     6503.804   -630.81611    4115.9305    311.74332     7282 
405000000   -4947.2251   -1425.5852    6375.7293   -608.16912     4129.809    305.60438     7284 
406000000    -4965.806   -1372.9972    6448.8789   -628.43676    4221.2455    309.11062     7281 
407000000   -4936.7019    -1391.937    6516.7035   -613.63699     4158.402    312.36162     7277 
408000000   -4891.5188    -1281.992    6572.7367   -627.40613     4236.933    315.04743     7279 
409000000   -4827.0421   -1189.8894    6441.5456   -580.43342     4217.586    308.75912     7279 
410000000   -4907.7422     -1293.44    6538.2462   -572.68119    4186.9835    313.39421     7277 
411000000   -4999.8581   -1546.6734    6435.5201   -644.80032    4097.9851     308.4703     7278 
412000000   -4902.6516   -1250.3215     6508.953   -538.49221    4190.8223    311.99012     7279 
413000000   -5001.4325   -1442.8263    6446.1404   -596.83633    4155.4426    308.97936     7282 
414000000   -4878.2003   -1311.2264    6598.1815    -571.8939    4138.8678    316.26706     7279 
415000000   -4850.4229   -1263.5754    6457.1582   -588.29433    4175.1417    309.50747     7282 
416000000   -4992.6557   -1381.2604    6484.6818   -604.49691    4215.8922    310.82674     7281 
417000000   -5036.4678   -1412.6374    6511.1789   -547.41562     4171.246    312.09681     7278 
418000000   -4887.3939   -1290.4449     6360.366   -573.31311     4170.262    304.86798     7279 
419000000   -4877.4298    -1371.584    6507.1065    -577.8846    4083.7304    311.90161     7281 
420000000   -4801.9194   -1270.3382    6379.5423    -564.5876    4096.1688    305.78715     7278 
421000000   -4861.3064   -1357.6589    6379.8114   -622.00298    4125.6505    305.80005     7275 
422000000   -4867.5567   -1380.2862    6569.4163   -609.97429    4097.2448    314.88828     7281 
423000000   -4891.6846   -1378.3358     6430.806   -602.06811    4115.4169    308.24434     7282 
424000000   -4893.8405   -1389.9956    6481.9179   -601.04271    4104.8877    310.69426     7282 
425000000   -4810.3458    -1242.324    6468.7211   -545.57778    4113.5996    310.06171     7283 
426000000   -5003.8374   -1399.7873    6583.7473   -660.38984    4264.4399    315.57519     7285 
427000000   -4972.1628   -1389.5239    6405.2762     -550.091    4132.7299    307.02063     7288 
428000000   -4985.9991   -1523.3994    6489.3417   -661.93238    4124.5321     311.0501     7286 
429000000    -4883.091   -1392.6177    6464.4352   -616.76799    4107.2412    309.85627     7282 
430000000   -4981.7416   -1516.9559    6560.4967   -598.21685    4063.0026    314.46074     7281 
431000000   -4823.6415   -1226.9885    6491.5622   -603.03248    4199.6855    311.15654     7280 
432000000   -4867.8151   -1330.3771    6463.1128   -614.36359    4151.8016    309.79289     7282 
433000000   -4887.1036    -1222.612    6552.4074   -514.14721    4178.6389      314.073     7278 
434000000   -4837.4151   -1287.4853    6577.4739    -590.5269    4140.4567    315.27449     7278 
435000000    -4820.872   -1313.8766    6516.2174   -617.91325    4124.9087    312.33832     7274 
436000000   -4861.8807   -1348.4561    6533.4047   -637.13986    4150.5645    313.16215     7280 
437000000   -4880.2718   -1348.2985    6471.6324   -613.90271    4145.8759    310.20125     7280 
438000000   -4903.1212   -1315.2908    6435.4078   -541.35498    4129.1854    308.46492     7282 
439000000    -4862.544   -1250.5784    6400.9019   -610.03406    4221.9997    306.81096     7285 
440000000   -4927.6695   -1375.4625    6440.8515   -630.31157    4182.5186    308.72585     7286 
441000000   -4883.9964   -1404.1867    6422.4931   -628.45993    4108.2697    307.84588     7286 
442000000   -4990.9196   -1458.2876     6432.439   -627.16155    4159.7935    308.32261     7287 
443000000   -4864.5067   -1361.8643    6409.2886   -576.13583    4078.7782    307.21296     7284 
444000000   -4901.9093   -1332.4588    6452.4208   -594.08196    4163.5324    309.28039     7282 
445000000   -4842.8517   -1385.3735    6368.0019   -638.20194    4095.6801    305.23399     7286 
446000000    -4866.421   -1350.0459    6407.2382   -675.44336    4191.8185    307.11468     7282 
447000000   -4913.3255   -1352.6863    6529.5416   -632.03403    4192.6732    312.97698     7281 
448000000   -4870.2791   -1361.6626    6378.2951   -618.73469    4127.3511    305.72737     7285 
449000000   -4953.6029    -1395.443    6321.9243   -677.22514     4235.385    303.02538     7286 
450000000   -4871.7008   -1307.8647    6477.1071   -616.08868    4179.9248    310.46367     7284 
451000000   -4844.5121   -1333.3776    6450.9253   -623.67381    4134.8083    309.20871     7282 
452000000   -4821.4893   -1281.3987    6563.7787   -593.22299    4133.3136    314.61805     7284 
453000000   -4951.8437    -1402.389     6534.492   -605.83108    4155.2857    313.21427     7281 
454000000   -4980.7554   -1348.3975    6352.0482   -571.95462    4204.3125    304.46929     7277 
455000000   -4961.6209   -1426.8493    6514.7224   -556.03943     4090.811    312.26666     7278 
456000000   -4864.4145   -1250.6347    6500.6671   -550.95814    4164.7379    311.59296     7275 
457000000   -4960.2567   -1517.4141    6492.3369   -644.44649    4087.2891    311.19367     7282 
458000000   -5029.6896   -1495.9144    6527.5252   -596.58483    4130.3601    312.88033     7279 
459000000   -4881.6238   -1232.4371     6501.904   -569.48988    4218.6766    311.65224     7280 
460000000   -4864.2594   -1294.7856    6614.6486   -567.67649    4137.1503    317.05637     7280 
461000000   -4896.1867   -1413.7703    6473.4099   -608.15364      4090.57    310.28645     7284 
462000000   -5040.9051   -1462.4841    6433.5456   -555.05584    4133.4768    308.37566     7284 
463000000   -4921.0587   -1298.8283    6417.1228   -560.96821    4183.1986    307.58847     7280 
464000000   -5008.5842   -1399.8909    6497.0274   -538.18137    4146.8747     311.4185     7280 
465000000   -5056.7201   -1566.4564    6517.6381    -608.2297    4098.4933    312.40642     7282 
466000000   -4914.5069   -1373.7428    6585.0847   -610.13824    4150.9024     315.6393     7284 
467000000   -4901.7692   -1385.0078    6471.9176   -598.72432    4115.4857    310.21492     7282 
468000000   -5040.3415   -1652.6321    6453.9146   -686.38234    4074.0918    309.35199     7285 
469000000   -4966.3276   -1419.1357    6376.3741   -616.76446    4163.9563    305.63529     7283 
470000000   -4981.0296   -1553.5136     6452.068   -679.20413    4106.7201    309.26348     7283 
471000000   -4947.8927   -1368.2149    6392.7294   -581.54683    4161.2247    306.41924     7281 
472000000   -4955.3165   -1500.1827    6410.7912   -679.62775    4134.7616    307.28498     7283 
473000000   -5021.7598   -1492.1391    6357.1451   -586.58693    4116.2076    304.71359     7278 
474000000   -4863.3148   -1394.3233    6372.4279   -634.77981    4103.7713    305.44614     7283 
475000000   -5035.6865    -1379.279    6523.6064   -567.27687    4223.6843    312.69249     7283 
476000000   -4966.0632    -1408.634    6353.2668   -600.80758    4158.2367    304.52769     7284 
477000000   -4899.5704   -1355.3709       6416.6       -608.8    4152.9995    307.56341     7282 
478000000   -4856.8967   -1426.5474    6571.6545   -602.93104    4033.2803    314.99556     7277 
479000000   -4838.4537   -1296.1552     6529.507   -545.70002    4087.9985    312.97532     7282 
480000000   -4919.9086   -1326.9018    6432.0077   -535.35144    4128.3583    308.30194     7282 
481000000   -4961.3075   -1398.7377    6489.1696   -565.09084    4127.6606    311.04185     7280 
482000000   -4960.7613   -1465.1053    6435.0676   -627.60785    4123.2639    308.44861     7283 
483000000   -4931.4546   -1420.8998    6515.0173   -639.45641    4150.0113     312.2808     7284 
484000000   -4920.5277    -1524.272    6374.6989   -684.34654    4080.6022    305.55499     7286 
485000000   -4994.8597   -1480.1854    6508.0828   -569.78933    4084.4636    311.94841     7288 
486000000   -4920.7472   -1466.1873    6495.1675   -656.45744    4111.0174    311.32935     7285 
487000000   -5045.4821   -1588.8703    6390.2902   -649.10005    4105.7119    306.30232     7283 
488000000   -4906.1636   -1432.1331    6538.8569    -637.8953    4111.9258    313.42349     7284 
489000000   -4962.3658   -1384.6954    6406.6467   -600.41186    4178.0823    307.08633     7278 
490000000   -5029.3479   -1533.4731    6473.8209   -631.05258    4126.9274    310.30615     7280 
491000000   -4903.1342   -1416.7029    6603.0879   -616.82096    4103.2523    316.50224     7278 
492000000   -4934.2396   -1421.3106    6421.0033   -591.30582    4104.2348    307.77447     7279 
493000000   -4911.3423   -1314.4941    6459.7445   -588.75028    4185.5985    309.63144     7278 
494000000   -4921.6783   -1372.5843    6494.4347   -588.69272    4137.7867    311.29422     7276 
495000000   -5045.6007   -1547.1745    6448.7788   -585.48037    4083.9066    309.10582     7279 
496000000   -5036.3933   -1504.2035    6430.5684   -572.36615    4104.5559    308.23295     7278 
497000000   -4982.1951   -1481.7996    6426.1955    -615.0879    4115.4834    308.02335     7281 
498000000   -4910.9916   -1373.1675    6483.3672   -616.46255    4154.2867    310.76373     7282 
499000000   -4981.4573   -1537.9265    6456.3355   -680.90359    4124.4343    309.46803     7280 
500000000   -4898.5663   -1381.3634    6522.6335   -564.91102    4082.1139    312.64586     7280 
Loop time of 25852.6 on 14 procs for 100000000 steps with 7000 atoms

Performance: 10026.057 ns/day, 0.002 hours/ns, 3868.078 timesteps/s
99.6% CPU use with 14 MPI tasks x no OpenMP threads

MPI task timing breakdown:
Section |  min time  |  avg time  |  max time  |%varavg| %total
---------------------------------------------------------------
Pair    | 6167.3     | 6965.8     | 7674.4     | 545.3 | 26.94
Bond    | 1076.8     | 1109.8     | 1150.3     |  65.3 |  4.29
Neigh   | 4388       | 4421.2     | 4453.9     |  31.8 | 17.10
Comm    | 6403.9     | 7519.4     | 9008.6     | 851.3 | 29.09
Output  | 0.54738    | 0.54753    | 0.54778    |   0.0 |  0.00
Modify  | 4100.6     | 4163.1     | 4263       |  82.1 | 16.10
Other   |            | 1673       |            |       |  6.47

Nlocal:    500 ave 544 max 462 min
Histogram: 1 1 2 3 0 3 1 2 0 1
Nghost:    798.786 ave 979 max 590 min
Histogram: 1 0 3 3 1 1 0 1 1 3
Neighs:    9513.93 ave 11346 max 7656 min
Histogram: 2 1 0 2 2 0 3 2 0 2

Total # of neighbors = 133195
Ave neighs/atom = 19.0279
Ave special neighs/atom = 7.44
Neighbor list builds = 6160947
Dangerous builds = 0

write_restart final_state_${fName}.restart
write_restart final_state_Run1_S10N05_rlx.restart
write_data final_state_${fName}.DATA
write_data final_state_Run1_S10N05_rlx.DATA
Total wall time: 7:10:53
