
units           real
boundary p p p
atom_style      full

read_restart final_state_Relax_Es_10kT_Ens_0.5kT.restart
  restoring atom style full from restart
  orthogonal box = (-500 -500 -500) to (500 500 500)
  1 by 2 by 7 MPI processor grid
  restoring pair style lj/cut from restart
  restoring bond style hybrid from restart
  restoring angle style cosine from restart
  7000 atoms
  7283 bonds
  6600 angles
  3 = max # of 1-2 neighbors
  4 = max # of 1-3 neighbors
  8 = max # of 1-4 neighbors
  16 = max # of special neighbors
  special bonds CPU = 0.00166531 secs
  read_restart CPU = 0.0113496 secs

change_box all x final -500.0 500.0 y final -500.0 500.0 z final -500.0 500.0
  orthogonal box = (-500 -500 -500) to (500 500 500)
  orthogonal box = (-500 -500 -500) to (500 500 500)
  orthogonal box = (-500 -500 -500) to (500 500 500)

neighbor 1.9 bin
neigh_modify every 1 delay 1 check yes

angle_style  cosine
angle_coeff   *  2  # K (energy unit)

bond_style 		 hybrid harmonic harmonic/shift/cut
bond_coeff   1   harmonic 3   10
bond_coeff   2   harmonic 3   10
bond_coeff   3   harmonic/shift/cut 5.922   11.22   12.72


pair_style lj/cut 25

pair_coeff  * * 0.296 10 25

special_bonds lj  0 1 1 angle yes
  3 = max # of 1-2 neighbors
  4 = max # of 1-3 neighbors
  8 = max # of 1-4 neighbors
  17064 = # of 1-3 neighbors before angle trim
  13200 = # of 1-3 neighbors after angle trim
  16 = max # of special neighbors
  special bonds CPU = 0.00148951 secs

variable t equal step
variable steps equal 100000000
variable dt_thermo equal 1000000
variable dt_movie equal 5000000
variable dt_restart equal 10000000

group rxnSites type 1 3
1000 atoms in group rxnSites

# fix ID group-ID(atom-types) bond/create Nevery itype jtype Rmin bondtype (prob values = fraction seed) (iparam maxbond newType)
fix bondc rxnSites bond/create/random 20 1 3 12.72 3 prob 1 ${seed} iparam 1 1 jparam 1 3
fix bondc rxnSites bond/create/random 20 1 3 12.72 3 prob 1 113918 iparam 1 1 jparam 1 3

# fix ID group-ID bond/break Nevery bondtype Rmax keyword values ...
fix bondbr rxnSites bond/break 20 3 12.72 prob 1 ${seed}
fix bondbr rxnSites bond/break 20 3 12.72 prob 1 113918

variable frmbnd equal f_bondc[2]
variable brkbnd equal f_bondbr[2]
fix saveBond all print ${dt_thermo} "$t ${frmbnd} ${brkbnd}" file BondData_${fName}.dat screen no
fix saveBond all print 1000000 "$t ${frmbnd} ${brkbnd}" file BondData_${fName}.dat screen no
fix saveBond all print 1000000 "$t ${frmbnd} ${brkbnd}" file BondData_Run10_S10N05_rlx.dat screen no

thermo_style    custom step epair pe ke ebond eangle temp bonds
thermo          ${dt_thermo}
thermo          1000000
fix saveThermo all print ${dt_thermo} "$t $(temp) $(ke) $(pe) $(epair) $(ebond) $(eangle) $(bonds)" file Thermo_${fName}.dat title "# Steps Temp KinEng PotEng Epair Ebond Eangle Bonds" screen no
fix saveThermo all print 1000000 "$t $(temp) $(ke) $(pe) $(epair) $(ebond) $(eangle) $(bonds)" file Thermo_${fName}.dat title "# Steps Temp KinEng PotEng Epair Ebond Eangle Bonds" screen no
fix saveThermo all print 1000000 "$t $(temp) $(ke) $(pe) $(epair) $(ebond) $(eangle) $(bonds)" file Thermo_Run10_S10N05_rlx.dat title "# Steps Temp KinEng PotEng Epair Ebond Eangle Bonds" screen no

############################ Langevin Dynamics ###############################
fix fxlan all langevin $T $T 500 ${seed}
fix fxlan all langevin 310 $T 500 ${seed}
fix fxlan all langevin 310 310 500 ${seed}
fix fxlan all langevin 310 310 500 113918
fix fxnve all nve

comm_style tiled
fix fxbal all balance 1000 1.1 rcb # load balance for spatially heterogeneous system

timestep 30

dump coor all custom ${dt_movie} traj_${fName}.dump id type mol mass x y z xu yu zu
dump coor all custom 5000000 traj_${fName}.dump id type mol mass x y z xu yu zu
dump coor all custom 5000000 traj_Run10_S10N05_rlx.dump id type mol mass x y z xu yu zu

restart ${dt_restart} ${fName}_tp_*.restart
restart 10000000 ${fName}_tp_*.restart
restart 10000000 Run10_S10N05_rlx_tp_*.restart
run ${steps}
run 100000000
Neighbor list info ...
  update every 1 steps, delay 1 steps, check yes
  max neighbors/atom: 2000, page size: 100000
  master list distance cutoff = 26.9
  ghost atom cutoff = 26.9
  binsize = 13.45, bins = 75 75 75
  2 neighbor lists, perpetual/occasional/extra = 1 1 0
  (1) pair lj/cut, perpetual
      attributes: half, newton on
      pair build: half/bin/newton
      stencil: half/bin/3d/newton
      bin: standard
  (2) fix bond/create/random, occasional, copy from (1)
      attributes: half, newton on
      pair build: copy
      stencil: none
      bin: none
Per MPI rank memory allocation (min/avg/max) = 10.32 | 10.75 | 11.78 Mbytes
Step E_pair PotEng KinEng E_bond E_angle Temp Bonds 
400000000   -4811.3255   -1250.4799    6427.2076   -619.69659    4180.5422    308.07186     7283 
401000000   -4893.8739    -1389.901    6531.5776   -654.18769    4158.1606    313.07457     7283 
402000000   -4877.6286   -1368.8235    6534.0111   -645.35387     4154.159    313.19121     7285 
403000000   -4977.4805   -1517.6125    6543.6991   -633.52175    4093.3898    313.65559     7284 
404000000   -4977.9007   -1490.5178    6544.4336   -597.68808     4085.071    313.69079     7284 
405000000   -4941.4139   -1487.7164    6448.9979   -594.02347     4047.721    309.11632     7277 
406000000   -4899.5449   -1429.2395     6465.019    -636.4826     4106.788    309.88426     7280 
407000000   -4960.7148   -1426.2904    6448.4303   -566.51615    4100.9405    309.08912     7279 
408000000   -4975.8694   -1494.8653    6408.7191   -649.27604    4130.2802    307.18566     7281 
409000000   -4879.9879   -1394.7761    6480.0116   -585.36742    4070.5791    310.60289     7278 
410000000   -4925.1654   -1319.7736    6495.7054   -600.46229    4205.8541    311.35513     7278 
411000000   -4990.4393   -1535.7459    6475.1131    -639.9357    4094.6292    310.36809     7282 
412000000   -4988.2141   -1491.7426    6397.2568    -618.5621    4115.0336    306.63624     7280 
413000000   -4962.8983   -1470.5194    6505.6627   -654.80225    4147.1811    311.83241     7285 
414000000   -4971.0662   -1500.0756    6394.5093    -626.2044     4097.195    306.50455     7280 
415000000   -5024.0456   -1532.4689    6501.6567   -650.21944    4141.7961    311.64039     7282 
416000000   -4959.6937   -1425.6852    6434.2297   -577.33098    4111.3394    308.40845     7278 
417000000   -4903.5075   -1374.2171    6403.3336   -568.24715    4097.5375    306.92752     7278 
418000000    -4891.442   -1331.3811    6611.9597     -571.753     4131.814    316.92748     7277 
419000000   -4906.1097   -1432.0943    6344.3057   -639.64237    4113.6578    304.09817     7279 
420000000   -4948.7791   -1469.0566    6483.6055   -661.32186    4141.0444    310.77515     7281 
421000000   -5052.1154   -1486.4512    6434.3376   -573.51121    4139.1755    308.41362     7283 
422000000   -5002.5391   -1607.1325    6481.7488   -664.44039     4059.847    310.68616     7284 
423000000   -4888.5713   -1350.6585    6560.6641   -655.01901    4192.9318    314.46876     7281 
424000000    -4949.432   -1363.9308    6448.0169   -596.81635    4182.3175     309.0693     7282 
425000000   -4956.3234   -1469.1741    6474.7416   -590.91043    4078.0597    310.35028     7281 
426000000   -4852.1792   -1347.1116     6521.076   -582.62885    4087.6965     312.5712     7280 
427000000   -4890.0558   -1390.5169    6450.4219   -600.65447    4100.1934    309.18458     7283 
428000000   -4963.0954   -1376.6715    6457.1698   -585.42884    4171.8528    309.50802     7282 
429000000   -4904.1118   -1467.4983    6462.4744   -630.46852    4067.0819    309.76229     7283 
430000000    -4961.503   -1586.8653    6356.4425   -728.10177    4102.7394    304.67991     7286 
431000000   -4973.0472   -1463.9984    6591.8046   -673.42239    4182.4712     315.9614     7283 
432000000   -4930.6621   -1379.0674    6413.6871   -628.51853    4180.1132    307.42379     7286 
433000000    -5014.107   -1523.8909    6487.4077   -636.74822    4126.9643     310.9574     7285 
434000000   -4779.9503   -1154.8894    6410.2135   -542.12464    4167.1855    307.25729     7284 
435000000   -4915.4725   -1377.6796    6396.5135   -653.97631    4191.7692    306.60062     7287 
436000000    -4862.278   -1346.1627    6468.8865   -593.88155    4109.9969    310.06963     7284 
437000000   -4991.0103   -1405.2268     6357.286   -600.70553    4186.4891    304.72035     7284 
438000000   -4936.6553   -1507.0626      6406.62   -630.23151    4059.8242    307.08505     7282 
439000000   -4896.7554   -1405.9063    6539.3708   -657.23852    4148.0876    313.44812     7283 
440000000   -4854.6221   -1253.8854    6387.8003   -668.95731    4269.6941    306.18297     7285 
441000000   -4856.9077   -1275.8694    6624.9622   -541.64575     4122.684    317.55073     7281 
442000000   -4989.1577   -1564.7755       6381.5   -689.28735    4113.6695    305.88098     7282 
443000000   -4945.3126   -1530.5852    6522.4016    -649.8571    4064.5845    312.63474     7284 
444000000   -4851.6075    -1272.147     6475.061     -570.242    4149.7026    310.36559     7282 
445000000   -4849.3344   -1315.5606    6438.9667   -620.27313    4154.0469    308.63551     7280 
446000000   -4941.1101   -1409.5997    6449.7909   -635.93111    4167.4415    309.15433     7281 
447000000   -4737.9698    -1197.046    6597.9675   -657.67537    4198.5991     316.2568     7282 
448000000   -4942.1007   -1236.7484    6520.2127   -545.88724    4251.2395    312.52982     7279 
449000000   -4904.1776   -1398.8846    6380.2634   -615.44489    4120.7379    305.82171     7282 
450000000   -4808.7821   -1227.1195    6584.5374   -595.65698    4177.3197    315.61307     7280 
451000000   -4782.2226   -1180.6049    6472.2664   -522.43973    4124.0575    310.23164     7285 
452000000   -4920.8971    -1391.507    6391.5032   -657.12515    4186.5153    306.36046     7285 
453000000   -4886.2489   -1444.4413    6518.5383   -619.29955    4061.1072    312.44957     7286 
454000000   -5008.6433   -1494.8022    6423.9817   -622.87688     4136.718    307.91723     7286 
455000000   -4980.3388   -1511.5622     6451.613   -658.41473    4127.1913    309.24167     7283 
456000000   -4877.8085   -1460.4342    6484.9549   -702.73667     4120.111    310.83983     7287 
457000000   -4876.3247   -1284.3548    6493.9027   -560.54007      4152.51    311.26872     7282 
458000000     -4919.39   -1396.8475    6584.8151   -645.97741    4168.5199    315.62638     7284 
459000000   -4928.7111   -1480.1527     6354.417   -590.28101    4038.8394    304.58283     7283 
460000000   -4963.5862   -1469.8193    6368.0357   -627.89379    4121.6607     305.2356     7278 
461000000   -5036.6821    -1488.591     6492.026   -564.87111    4112.9621    311.17877     7282 
462000000   -5048.4133   -1551.9773    6576.1768   -598.25158    4094.6876    315.21232     7277 
463000000   -4949.0426   -1285.6662    6454.1863   -503.26804    4166.6444    309.36502     7274 
464000000   -4943.9494   -1460.4682    6528.3685   -621.61613    4105.0973    312.92075     7277 
465000000   -5059.3853   -1593.9476    6450.7576   -555.83239    4021.2701    309.20067     7278 
466000000    -4942.058   -1462.4856    6396.3946   -671.66686    4151.2393    306.59492     7279 
467000000   -4877.3244   -1397.7749    6378.8543   -583.13354     4062.683    305.75417     7282 
468000000   -5022.7086    -1468.391    6542.0577   -556.24398    4110.5615    313.57691     7283 
469000000   -4857.6992   -1512.4117    6470.8377   -643.05158    3988.3391    310.16316     7284 
470000000   -4918.0782   -1467.8877    6351.9407   -670.48964    4120.6801    304.46413     7288 
471000000   -4954.5595   -1509.4408    6412.6045   -628.64052    4073.7592     307.3719     7285 
472000000   -4965.9644   -1474.6097    6491.8992   -632.40246    4123.7571    311.17269     7280 
473000000   -4928.4503   -1392.8287    6427.5903   -611.73632     4147.358     308.0902     7277 
474000000   -4907.8575   -1296.8923    6595.2122   -585.24942    4196.2146    316.12474     7275 
475000000   -4989.3671   -1453.5697    6550.7384   -615.96496    4151.7624      313.993     7280 
476000000   -4948.6307    -1408.708     6438.891    -573.1391    4113.0618    308.63188     7277 
477000000   -4973.8355   -1510.9278    6431.1044   -650.94597    4113.8537    308.25864     7281 
478000000   -5021.1327   -1528.5347     6463.589   -608.95914    4101.5571    309.81571     7282 
479000000   -4949.2179   -1498.7678    6427.6551   -656.84863    4107.2988    308.09331     7283 
480000000   -4958.3506   -1443.2215    6495.3005   -625.28789    4140.4169    311.33572     7282 
481000000   -4866.9929    -1334.491    6459.4515   -622.39301    4154.8949    309.61739     7281 
482000000   -4923.7377   -1354.9948    6460.9277   -557.81195    4126.5548    309.68815     7282 
483000000   -5007.9087    -1526.008    6455.9615   -608.22005    4090.1207    309.45011     7283 
484000000    -4839.016   -1380.4742    6482.7344   -640.93931    4099.4812     310.7334     7281 
485000000   -4985.8251   -1578.6106    6585.1135   -637.65903    4044.8735    315.64068     7278 
486000000   -4972.5121    -1380.435    6669.5256   -649.38841    4241.4655    319.68676     7281 
487000000   -4938.6211   -1411.0335     6490.058   -579.64614    4107.2338    311.08443     7280 
488000000   -4994.9876   -1383.5537    6525.3851   -590.00395    4201.4378    312.77775     7276 
489000000   -5033.2395   -1487.4166    6438.2054   -540.33918    4086.1621    308.59901     7281 
490000000   -5031.1305   -1538.9632    6478.6513   -621.31309    4113.4803    310.53769     7280 
491000000   -4957.9944   -1502.4197    6356.5246   -628.64754    4084.2222    304.68385     7284 
492000000   -5072.6155    -1557.987    6379.6912   -586.25512    4100.8836    305.79428     7283 
493000000   -5035.4409   -1477.4553    6536.4194    -529.1721    4087.1577    313.30665     7281 
494000000   -4976.1173   -1412.5876    6468.7174   -553.85322     4117.383    310.06153     7281 
495000000    -4929.104    -1332.166    6475.6129   -509.70214    4106.6402    310.39205     7280 
496000000   -4894.4781   -1408.1798    6448.5488   -631.29327    4117.5915     309.0948     7282 
497000000   -4853.0885   -1401.2527    6383.9771   -601.44108    4053.2769    305.99972     7283 
498000000   -5112.2056   -1602.0983    6547.5624   -591.68513    4101.7925    313.84076     7279 
499000000    -4915.911   -1320.4414    6510.1825   -577.29511    4172.7646    312.04905     7279 
500000000   -5034.4038   -1528.3111    6468.9703   -592.19192    4098.2846    310.07365     7277 
Loop time of 25584.1 on 14 procs for 100000000 steps with 7000 atoms

Performance: 10131.283 ns/day, 0.002 hours/ns, 3908.674 timesteps/s
99.5% CPU use with 14 MPI tasks x no OpenMP threads

MPI task timing breakdown:
Section |  min time  |  avg time  |  max time  |%varavg| %total
---------------------------------------------------------------
Pair    | 6236.5     | 7442.7     | 8119.7     | 600.7 | 29.09
Bond    | 1147.6     | 1179.9     | 1211.6     |  50.9 |  4.61
Neigh   | 4639.7     | 4678.5     | 4720.3     |  34.5 | 18.29
Comm    | 6334.4     | 7221.4     | 8668.1     | 692.8 | 28.23
Output  | 0.42516    | 0.42522    | 0.42533    |   0.0 |  0.00
Modify  | 4064       | 4105.4     | 4150.4     |  47.7 | 16.05
Other   |            | 955.9      |            |       |  3.74

Nlocal:    500 ave 527 max 484 min
Histogram: 3 1 3 1 2 1 2 0 0 1
Nghost:    830.429 ave 1038 max 605 min
Histogram: 1 2 1 2 2 0 1 0 3 2
Neighs:    9668.93 ave 11114 max 8398 min
Histogram: 3 0 1 1 2 3 1 0 1 2

Total # of neighbors = 135365
Ave neighs/atom = 19.3379
Ave special neighs/atom = 7.42886
Neighbor list builds = 6161431
Dangerous builds = 0

write_restart final_state_${fName}.restart
write_restart final_state_Run10_S10N05_rlx.restart
write_data final_state_${fName}.DATA
write_data final_state_Run10_S10N05_rlx.DATA
Total wall time: 7:06:24
