
units           real
boundary p p p
atom_style      full

read_restart final_state_Relax_Es_10kT_Ens_0.5kT.restart
  restoring atom style full from restart
  orthogonal box = (-500 -500 -500) to (500 500 500)
  1 by 2 by 7 MPI processor grid
  restoring pair style lj/cut from restart
  restoring bond style hybrid from restart
  restoring angle style cosine from restart
  7000 atoms
  7283 bonds
  6600 angles
  3 = max # of 1-2 neighbors
  4 = max # of 1-3 neighbors
  8 = max # of 1-4 neighbors
  16 = max # of special neighbors
  special bonds CPU = 0.00150049 secs
  read_restart CPU = 0.0391224 secs

change_box all x final -500.0 500.0 y final -500.0 500.0 z final -500.0 500.0
  orthogonal box = (-500 -500 -500) to (500 500 500)
  orthogonal box = (-500 -500 -500) to (500 500 500)
  orthogonal box = (-500 -500 -500) to (500 500 500)

neighbor 1.9 bin
neigh_modify every 1 delay 1 check yes

angle_style  cosine
angle_coeff   *  2  # K (energy unit)

bond_style 		 hybrid harmonic harmonic/shift/cut
bond_coeff   1   harmonic 3   10
bond_coeff   2   harmonic 3   10
bond_coeff   3   harmonic/shift/cut 5.922   11.22   12.72


pair_style lj/cut 25

pair_coeff  * * 0.296 10 25

special_bonds lj  0 1 1 angle yes
  3 = max # of 1-2 neighbors
  4 = max # of 1-3 neighbors
  8 = max # of 1-4 neighbors
  17064 = # of 1-3 neighbors before angle trim
  13200 = # of 1-3 neighbors after angle trim
  16 = max # of special neighbors
  special bonds CPU = 0.0013444 secs

variable t equal step
variable steps equal 100000000
variable dt_thermo equal 1000000
variable dt_movie equal 5000000
variable dt_restart equal 10000000

group rxnSites type 1 3
1000 atoms in group rxnSites

# fix ID group-ID(atom-types) bond/create Nevery itype jtype Rmin bondtype (prob values = fraction seed) (iparam maxbond newType)
fix bondc rxnSites bond/create/random 20 1 3 12.72 3 prob 1 ${seed} iparam 1 1 jparam 1 3
fix bondc rxnSites bond/create/random 20 1 3 12.72 3 prob 1 829269 iparam 1 1 jparam 1 3

# fix ID group-ID bond/break Nevery bondtype Rmax keyword values ...
fix bondbr rxnSites bond/break 20 3 12.72 prob 1 ${seed}
fix bondbr rxnSites bond/break 20 3 12.72 prob 1 829269

variable frmbnd equal f_bondc[2]
variable brkbnd equal f_bondbr[2]
fix saveBond all print ${dt_thermo} "$t ${frmbnd} ${brkbnd}" file BondData_${fName}.dat screen no
fix saveBond all print 1000000 "$t ${frmbnd} ${brkbnd}" file BondData_${fName}.dat screen no
fix saveBond all print 1000000 "$t ${frmbnd} ${brkbnd}" file BondData_Run2_S10N05_rlx.dat screen no

thermo_style    custom step epair pe ke ebond eangle temp bonds
thermo          ${dt_thermo}
thermo          1000000
fix saveThermo all print ${dt_thermo} "$t $(temp) $(ke) $(pe) $(epair) $(ebond) $(eangle) $(bonds)" file Thermo_${fName}.dat title "# Steps Temp KinEng PotEng Epair Ebond Eangle Bonds" screen no
fix saveThermo all print 1000000 "$t $(temp) $(ke) $(pe) $(epair) $(ebond) $(eangle) $(bonds)" file Thermo_${fName}.dat title "# Steps Temp KinEng PotEng Epair Ebond Eangle Bonds" screen no
fix saveThermo all print 1000000 "$t $(temp) $(ke) $(pe) $(epair) $(ebond) $(eangle) $(bonds)" file Thermo_Run2_S10N05_rlx.dat title "# Steps Temp KinEng PotEng Epair Ebond Eangle Bonds" screen no

############################ Langevin Dynamics ###############################
fix fxlan all langevin $T $T 500 ${seed}
fix fxlan all langevin 310 $T 500 ${seed}
fix fxlan all langevin 310 310 500 ${seed}
fix fxlan all langevin 310 310 500 829269
fix fxnve all nve

comm_style tiled
fix fxbal all balance 1000 1.1 rcb # load balance for spatially heterogeneous system

timestep 30

dump coor all custom ${dt_movie} traj_${fName}.dump id type mol mass x y z xu yu zu
dump coor all custom 5000000 traj_${fName}.dump id type mol mass x y z xu yu zu
dump coor all custom 5000000 traj_Run2_S10N05_rlx.dump id type mol mass x y z xu yu zu

restart ${dt_restart} ${fName}_tp_*.restart
restart 10000000 ${fName}_tp_*.restart
restart 10000000 Run2_S10N05_rlx_tp_*.restart
run ${steps}
run 100000000
Neighbor list info ...
  update every 1 steps, delay 1 steps, check yes
  max neighbors/atom: 2000, page size: 100000
  master list distance cutoff = 26.9
  ghost atom cutoff = 26.9
  binsize = 13.45, bins = 75 75 75
  2 neighbor lists, perpetual/occasional/extra = 1 1 0
  (1) pair lj/cut, perpetual
      attributes: half, newton on
      pair build: half/bin/newton
      stencil: half/bin/3d/newton
      bin: standard
  (2) fix bond/create/random, occasional, copy from (1)
      attributes: half, newton on
      pair build: copy
      stencil: none
      bin: none
Per MPI rank memory allocation (min/avg/max) = 10.32 | 10.75 | 11.78 Mbytes
Step E_pair PotEng KinEng E_bond E_angle Temp Bonds 
400000000   -4811.3255   -1250.4799    6427.2076   -619.69659    4180.5422    308.07186     7283 
401000000   -4829.6572   -1309.6271    6526.5936   -604.91622    4124.9463    312.83568     7281 
402000000   -4920.3735   -1359.4687    6422.7016   -639.53925     4200.444    307.85588     7281 
403000000   -5011.1511   -1398.7923    6428.7225   -656.00388    4268.3627    308.14448     7279 
404000000   -4971.1464   -1304.7432    6388.8416   -559.27315    4225.6764    306.23289     7280 
405000000   -4894.8516   -1370.6531    6450.6087   -631.08003    4155.2785    309.19353     7281 
406000000   -4890.0341    -1367.535    6362.0487   -645.79005    4168.2891    304.94864     7280 
407000000   -5043.4972   -1487.2713    6368.7063   -619.77445    4176.0004    305.26775     7278 
408000000   -4859.9265   -1359.4363      6440.59   -611.82109    4112.3113    308.71331     7281 
409000000   -4908.3949   -1335.3657    6422.4222   -562.62607    4135.6552    307.84249     7281 
410000000   -4960.4466   -1444.9303    6413.1258   -591.19507    4106.7113    307.39689     7277 
411000000   -4892.1641   -1424.9643    6382.2914   -569.90021       4037.1    305.91892     7280 
412000000   -4994.0389   -1390.8997    6476.6029   -578.23919    4181.3785     310.4395     7279 
413000000   -4917.8231   -1297.6295    6598.9038   -599.37646    4219.5701    316.30168     7280 
414000000   -4957.1947   -1485.6543    6347.1153   -649.59021    4121.1307    304.23284     7280 
415000000   -4878.9123   -1357.4656    6440.3689   -663.94636     4185.393    308.70272     7278 
416000000   -4894.0038   -1357.3894    6451.1009   -614.87409    4151.4885    309.21712     7281 
417000000   -4937.7192   -1447.0294    6470.3058   -602.00393    4092.6938    310.13767     7283 
418000000   -4925.7831   -1290.6628    6497.0942    -551.2726    4186.3929     311.4217     7283 
419000000   -4953.9849   -1381.1581    6526.1356   -616.16181    4188.9887    312.81373     7286 
420000000   -4992.6107   -1452.8989    6562.4156   -623.23808    4162.9499    314.55271     7285 
421000000    -5006.731   -1471.0003    6407.7393   -580.39729     4116.128     307.1387     7283 
422000000   -4905.8638   -1392.6202    6420.5773   -615.59921    4128.8427    307.75405     7279 
423000000   -5017.6307   -1451.0467    6512.0955   -583.08787    4149.6719    312.14075     7279 
424000000   -4900.4272   -1194.5237    6581.4716   -531.77743     4237.681    315.46611     7280 
425000000   -4873.2106   -1334.2279    6511.2316   -588.88114    4127.8638    312.09934     7278 
426000000   -4969.7154   -1438.3996    6466.6027   -616.74614     4148.062    309.96016     7281 
427000000   -4766.4722   -1136.5946    6506.4518   -553.14411    4183.0217    311.87023     7281 
428000000   -4888.5522   -1325.8547    6414.6081   -639.25584    4201.9533    307.46794     7284 
429000000   -4983.8953    -1365.328    6429.7125   -630.53802    4249.1053    308.19193     7285 
430000000   -4935.6756   -1397.3242    6468.2254   -619.74482    4158.0962    310.03794     7283 
431000000   -4930.9234   -1413.2811    6398.3482   -610.23508    4127.8774    306.68856     7281 
432000000   -4865.0617   -1315.8981    6438.4397   -571.50264    4120.6663    308.61024     7277 
433000000   -4938.7428   -1375.1164    6445.7949   -571.67056    4135.2969     308.9628     7284 
434000000   -5059.1601   -1490.2429    6460.8416   -617.51484    4186.4321    309.68402     7281 
435000000   -5063.5216   -1572.0577    6491.8413   -628.93358    4120.3975    311.16991     7286 
436000000    -4939.975   -1503.1825    6528.6187   -641.45415    4078.2466    312.93275     7286 
437000000   -5015.8871   -1513.1136    6401.0404   -611.04121    4113.8147     306.8176     7283 
438000000   -4956.1126   -1410.3595    6421.2741   -600.52063    4146.2737    307.78745     7284 
439000000   -4952.6098   -1311.6206    6506.4467   -520.87974    4161.8689    311.86999     7278 
440000000   -4999.6235   -1357.1572    6547.1104   -569.06749    4211.5338     313.8191     7280 
441000000   -4882.3242    -1358.766    6499.9488   -613.74452    4137.3027    311.55853     7280 
442000000   -4972.2215   -1492.9892    6458.6634   -650.45504    4129.6873    309.57962     7280 
443000000   -4963.2294   -1400.0788    6437.3129   -576.65794    4139.8085    308.55623     7279 
444000000   -4971.1615   -1460.8428    6545.6522   -574.08017    4084.3988     313.7492     7277 
445000000    -4896.573   -1392.8629    6495.4106   -549.67051    4053.3805      311.341     7273 
446000000   -4919.5116   -1341.5349    6575.9757   -532.14094    4110.1177    315.20268     7275 
447000000    -4939.975   -1394.1625    6564.7853   -620.66616    4166.4787     314.6663     7282 
448000000    -4960.932   -1436.0774    6507.8618    -608.3087    4133.1633    311.93781     7285 
449000000   -4870.1543   -1279.4899     6462.052   -584.29078    4174.9551    309.74204     7284 
450000000   -4889.2571   -1351.8282    6562.9108   -611.60852    4149.0374    314.57645     7286 
451000000   -4892.0795   -1310.3245    6527.0398   -548.95114    4130.7062    312.85706     7282 
452000000   -4983.9646   -1483.1568    6407.9241    -640.9132     4141.721    307.14756     7282 
453000000   -4844.3244   -1275.5498    6447.8578   -560.21705    4128.9917    309.06168     7280 
454000000   -4929.3004   -1302.8915      6483.67   -601.65953    4228.0684    310.77824     7281 
455000000   -4926.0953   -1437.4374    6468.5206   -642.29127    4130.9491     310.0521     7283 
456000000   -4777.6931   -1180.3216    6551.5573   -571.77852      4169.15    314.03225     7282 
457000000   -4911.2973   -1273.9474    6629.9734   -590.86714    4228.2171    317.79092     7279 
458000000   -4988.3206   -1461.4873    6497.5774   -537.60322    4064.4365    311.44486     7282 
459000000   -5071.1177   -1634.3127    6413.3837   -647.38485    4084.1899    307.40925     7281 
460000000   -4930.2388     -1383.47    6354.7959   -634.77876    4181.5475    304.60099     7279 
461000000    -4940.994   -1454.5382    6379.7843   -646.84208    4133.2979    305.79875     7282 
462000000    -4923.315   -1211.5325     6477.384   -558.04506    4269.8275    310.47694     7283 
463000000   -4928.0832   -1321.9129    6534.9871     -642.519    4248.6893      313.238     7284 
464000000   -4899.7968   -1433.7751    6493.3411   -655.74169    4121.7633     311.2418     7283 
465000000   -4913.6815   -1383.6238    6542.3113   -637.27196    4167.3296    313.58906     7284 
466000000   -5000.6327   -1469.7783     6481.965    -646.4637     4177.318    310.69652     7284 
467000000   -4882.7095   -1346.0523    6403.0379   -574.44905    4111.1063    306.91335     7282 
468000000   -4981.1013    -1408.711    6480.8109    -572.0521    4144.4424     310.6412     7281 
469000000   -4912.9485   -1442.0561    6477.7462   -642.79857     4113.691     310.4943     7284 
470000000    -4875.959   -1493.2372    6465.8544   -691.10535    4073.8271     309.9243     7287 
471000000    -4886.195   -1400.0472    6412.4551   -684.88888    4171.0367    307.36474     7289 
472000000   -4881.0239   -1331.0503    6469.2692   -621.05493    4171.0285    310.08798     7287 
473000000   -4832.5494   -1231.6402    6390.7931   -623.09618    4224.0054    306.32642     7287 
474000000   -4894.0616   -1257.3548    6573.8113   -537.12341    4173.8302    315.09894     7282 
475000000   -4856.9239   -1390.7813    6417.2755     -659.587    4125.7296    307.59579     7281 
476000000   -5030.5939   -1544.6136    6466.1811   -701.95008    4187.9304    309.93996     7285 
477000000   -4993.9633   -1426.9222    6422.6033   -586.81106    4153.8521    307.85117     7286 
478000000   -4928.3125   -1402.3566     6470.729   -596.42671    4122.3826    310.15795     7287 
479000000     -4966.28   -1466.2895    6473.3301   -609.43841    4109.4288    310.28263     7286 
480000000    -4911.752    -1511.706    6494.0404   -681.47983    4081.5258    311.27532     7282 
481000000   -4938.2578   -1457.3731     6510.809   -597.88596    4078.7706    312.07908     7278 
482000000   -5026.5499   -1518.7664    6442.6953   -650.23666    4158.0201    308.81423     7283 
483000000   -4998.8345   -1512.3757    6472.7086   -667.74464    4154.2035    310.25284     7282 
484000000   -4890.9931   -1329.6827    6555.1849   -642.27147    4203.5819    314.20613     7280 
485000000   -4973.6244   -1372.5499    6430.1735   -591.29028    4192.3647    308.21403     7282 
486000000   -5007.1447   -1444.6815    6402.7977   -641.84235    4204.3055    306.90183     7281 
487000000   -4885.6629   -1473.8384    6445.7873   -640.65004    4052.4745    308.96243     7279 
488000000   -4981.3225   -1501.9284    6378.4929   -614.25979     4093.654    305.73685     7279 
489000000   -4941.0229    -1371.065    6459.1722   -615.63718    4185.5951      309.604     7284 
490000000    -4898.196   -1455.6544    6433.9809   -640.20444    4082.7461    308.39652     7286 
491000000   -4955.2686   -1386.4623    6396.2101   -570.54013    4139.3464    306.58607     7283 
492000000   -4986.3734   -1433.4878    6486.2174   -537.27009    4090.1557    310.90034     7279 
493000000   -4940.2299   -1374.3904    6501.0098   -616.68366    4182.5232    311.60938     7281 
494000000   -4979.3271   -1370.0621    6447.2461   -550.45118    4159.7162    309.03235     7279 
495000000   -4947.4912   -1398.0663    6464.4743   -620.80432    4170.2292    309.85814     7281 
496000000    -5031.858   -1496.9904    6414.7614   -591.91046    4126.7781    307.47529     7283 
497000000   -4918.6794   -1374.3139    6300.1175   -574.14902    4118.5145    301.98012     7282 
498000000   -4882.3385   -1288.7946    6536.8473   -584.28952    4177.8334    313.32716     7282 
499000000   -4996.4735   -1510.7704    6434.7625   -632.85024    4118.5534    308.43399     7285 
500000000   -4963.9569   -1450.8837    6552.7305   -692.40308    4205.4764    314.08848     7286 
Loop time of 24515.6 on 14 procs for 100000000 steps with 7000 atoms

Performance: 10572.880 ns/day, 0.002 hours/ns, 4079.043 timesteps/s
99.5% CPU use with 14 MPI tasks x no OpenMP threads

MPI task timing breakdown:
Section |  min time  |  avg time  |  max time  |%varavg| %total
---------------------------------------------------------------
Pair    | 6283.3     | 7066.9     | 8049.2     | 723.0 | 28.83
Bond    | 1063.3     | 1136       | 1295.1     | 186.7 |  4.63
Neigh   | 4430.3     | 4464.8     | 4504.4     |  33.9 | 18.21
Comm    | 6066.5     | 7077.8     | 8034.6     | 782.6 | 28.87
Output  | 0.49181    | 0.49183    | 0.49184    |   0.0 |  0.00
Modify  | 3819.6     | 3901.2     | 4021.2     | 118.2 | 15.91
Other   |            | 868.4      |            |       |  3.54

Nlocal:    500 ave 518 max 482 min
Histogram: 1 1 0 3 1 4 1 1 1 1
Nghost:    819.571 ave 981 max 610 min
Histogram: 2 2 1 0 1 1 2 0 0 5
Neighs:    9612.5 ave 10830 max 7723 min
Histogram: 1 0 1 1 2 1 1 3 2 2

Total # of neighbors = 134575
Ave neighs/atom = 19.225
Ave special neighs/atom = 7.46229
Neighbor list builds = 6160685
Dangerous builds = 0

write_restart final_state_${fName}.restart
write_restart final_state_Run2_S10N05_rlx.restart
write_data final_state_${fName}.DATA
write_data final_state_Run2_S10N05_rlx.DATA
Total wall time: 6:48:35
