
units           real
boundary p p p
atom_style      full

read_restart final_state_Relax_Es_10kT_Ens_0.5kT.restart
  restoring atom style full from restart
  orthogonal box = (-500 -500 -500) to (500 500 500)
  1 by 2 by 7 MPI processor grid
  restoring pair style lj/cut from restart
  restoring bond style hybrid from restart
  restoring angle style cosine from restart
  7000 atoms
  7283 bonds
  6600 angles
  3 = max # of 1-2 neighbors
  4 = max # of 1-3 neighbors
  8 = max # of 1-4 neighbors
  16 = max # of special neighbors
  special bonds CPU = 0.00155694 secs
  read_restart CPU = 0.0108613 secs

change_box all x final -500.0 500.0 y final -500.0 500.0 z final -500.0 500.0
  orthogonal box = (-500 -500 -500) to (500 500 500)
  orthogonal box = (-500 -500 -500) to (500 500 500)
  orthogonal box = (-500 -500 -500) to (500 500 500)

neighbor 1.9 bin
neigh_modify every 1 delay 1 check yes

angle_style  cosine
angle_coeff   *  2  # K (energy unit)

bond_style 		 hybrid harmonic harmonic/shift/cut
bond_coeff   1   harmonic 3   10
bond_coeff   2   harmonic 3   10
bond_coeff   3   harmonic/shift/cut 5.922   11.22   12.72


pair_style lj/cut 25

pair_coeff  * * 0.296 10 25

special_bonds lj  0 1 1 angle yes
  3 = max # of 1-2 neighbors
  4 = max # of 1-3 neighbors
  8 = max # of 1-4 neighbors
  17064 = # of 1-3 neighbors before angle trim
  13200 = # of 1-3 neighbors after angle trim
  16 = max # of special neighbors
  special bonds CPU = 0.00135998 secs

variable t equal step
variable steps equal 100000000
variable dt_thermo equal 1000000
variable dt_movie equal 5000000
variable dt_restart equal 10000000

group rxnSites type 1 3
1000 atoms in group rxnSites

# fix ID group-ID(atom-types) bond/create Nevery itype jtype Rmin bondtype (prob values = fraction seed) (iparam maxbond newType)
fix bondc rxnSites bond/create/random 20 1 3 12.72 3 prob 1 ${seed} iparam 1 1 jparam 1 3
fix bondc rxnSites bond/create/random 20 1 3 12.72 3 prob 1 133225 iparam 1 1 jparam 1 3

# fix ID group-ID bond/break Nevery bondtype Rmax keyword values ...
fix bondbr rxnSites bond/break 20 3 12.72 prob 1 ${seed}
fix bondbr rxnSites bond/break 20 3 12.72 prob 1 133225

variable frmbnd equal f_bondc[2]
variable brkbnd equal f_bondbr[2]
fix saveBond all print ${dt_thermo} "$t ${frmbnd} ${brkbnd}" file BondData_${fName}.dat screen no
fix saveBond all print 1000000 "$t ${frmbnd} ${brkbnd}" file BondData_${fName}.dat screen no
fix saveBond all print 1000000 "$t ${frmbnd} ${brkbnd}" file BondData_Run3_S10N05_rlx.dat screen no

thermo_style    custom step epair pe ke ebond eangle temp bonds
thermo          ${dt_thermo}
thermo          1000000
fix saveThermo all print ${dt_thermo} "$t $(temp) $(ke) $(pe) $(epair) $(ebond) $(eangle) $(bonds)" file Thermo_${fName}.dat title "# Steps Temp KinEng PotEng Epair Ebond Eangle Bonds" screen no
fix saveThermo all print 1000000 "$t $(temp) $(ke) $(pe) $(epair) $(ebond) $(eangle) $(bonds)" file Thermo_${fName}.dat title "# Steps Temp KinEng PotEng Epair Ebond Eangle Bonds" screen no
fix saveThermo all print 1000000 "$t $(temp) $(ke) $(pe) $(epair) $(ebond) $(eangle) $(bonds)" file Thermo_Run3_S10N05_rlx.dat title "# Steps Temp KinEng PotEng Epair Ebond Eangle Bonds" screen no

############################ Langevin Dynamics ###############################
fix fxlan all langevin $T $T 500 ${seed}
fix fxlan all langevin 310 $T 500 ${seed}
fix fxlan all langevin 310 310 500 ${seed}
fix fxlan all langevin 310 310 500 133225
fix fxnve all nve

comm_style tiled
fix fxbal all balance 1000 1.1 rcb # load balance for spatially heterogeneous system

timestep 30

dump coor all custom ${dt_movie} traj_${fName}.dump id type mol mass x y z xu yu zu
dump coor all custom 5000000 traj_${fName}.dump id type mol mass x y z xu yu zu
dump coor all custom 5000000 traj_Run3_S10N05_rlx.dump id type mol mass x y z xu yu zu

restart ${dt_restart} ${fName}_tp_*.restart
restart 10000000 ${fName}_tp_*.restart
restart 10000000 Run3_S10N05_rlx_tp_*.restart
run ${steps}
run 100000000
Neighbor list info ...
  update every 1 steps, delay 1 steps, check yes
  max neighbors/atom: 2000, page size: 100000
  master list distance cutoff = 26.9
  ghost atom cutoff = 26.9
  binsize = 13.45, bins = 75 75 75
  2 neighbor lists, perpetual/occasional/extra = 1 1 0
  (1) pair lj/cut, perpetual
      attributes: half, newton on
      pair build: half/bin/newton
      stencil: half/bin/3d/newton
      bin: standard
  (2) fix bond/create/random, occasional, copy from (1)
      attributes: half, newton on
      pair build: copy
      stencil: none
      bin: none
Per MPI rank memory allocation (min/avg/max) = 10.32 | 10.75 | 11.78 Mbytes
Step E_pair PotEng KinEng E_bond E_angle Temp Bonds 
400000000   -4811.3255   -1250.4799    6427.2076   -619.69659    4180.5422    308.07186     7283 
401000000   -4904.8111   -1391.1963    6543.4683   -619.37458    4132.9894    313.64452     7283 
402000000   -4914.4468   -1320.3952     6366.814   -575.11724    4169.1689    305.17705     7282 
403000000   -4909.1488    -1404.294    6397.6359   -623.67042    4128.5253    306.65442     7281 
404000000   -4996.0485   -1511.1072     6559.483   -631.28602    4116.2273    314.41215     7282 
405000000   -4864.6015   -1346.8147    6530.1163   -561.41957    4079.2063    313.00453     7280 
406000000   -4942.0563   -1465.0609    6524.9071   -598.90927    4075.9047    312.75484     7279 
407000000   -4928.7432   -1412.8119    6513.0551    -597.4402    4113.3715    312.18675     7282 
408000000   -4812.0735   -1234.3393    6489.6151   -566.87133    4144.6055     311.0632     7282 
409000000    -4991.183   -1444.7251    6380.1482   -636.06418    4182.5221    305.81619     7282 
410000000   -4916.1199   -1383.7302    6491.0449   -644.40684    4176.7965    311.13174     7280 
411000000   -4882.1099   -1287.4514    6419.1413   -595.62793    4190.2864    307.68523     7283 
412000000   -4968.2938   -1296.8657    6447.4653   -528.47748    4199.9055    309.04286     7283 
413000000    -4895.755   -1260.5462    6465.8218    -592.4328    4227.6417    309.92274     7279 
414000000   -4823.9864   -1200.4698     6599.835   -573.77174    4197.2884    316.34632     7281 
415000000   -4853.4539   -1284.0497    6390.1226   -575.35835    4144.7625    306.29428     7282 
416000000   -4829.9575   -1327.0558    6454.7329   -643.01329     4145.915    309.39122     7285 
417000000   -4837.8367   -1223.7483    6520.0439   -576.00491    4190.0933    312.52173     7285 
418000000   -4916.1922   -1369.7153    6452.6695    -586.8752     4133.352    309.29231     7285 
419000000   -4828.5209   -1300.5594    6373.1586    -634.0666    4162.0282    305.48116     7284 
420000000   -4997.9046   -1431.0833    6428.4937   -587.44588    4154.2672    308.13351     7281 
421000000   -4845.5177    -1321.492    6481.1349   -654.48101    4178.5067    310.65673     7282 
422000000    -4800.211   -1278.0054    6419.0133    -657.5477    4179.7534    307.67909     7282 
423000000   -4824.4895   -1334.2264    6487.9042   -641.07261    4131.3358     310.9812     7282 
424000000   -4885.8078    -1407.916    6528.2279   -679.37138    4157.2632    312.91401     7283 
425000000   -4867.1561   -1351.2978    6451.3912   -623.05939    4138.9178    309.23104     7284 
426000000   -4932.0466     -1339.04    6457.5168   -604.23138    4197.2379    309.52465     7279 
427000000   -4826.4683   -1249.1005    6413.8676    -574.0681     4151.436    307.43244     7279 
428000000   -4835.8503    -1360.984    6461.4419   -606.58345    4081.4498    309.71279     7280 
429000000   -4884.8388   -1356.5617    6570.5312   -612.18574    4140.4628    314.94171     7282 
430000000   -4943.9541   -1493.0679    6529.8103   -634.18993    4085.0761    312.98986     7282 
431000000   -4765.5384   -1175.9863    6554.9493   -595.99346    4185.5455    314.19484     7278 
432000000   -4827.3092   -1421.7586    6467.3422   -688.61633     4094.167    309.99561     7279 
433000000   -4866.0797    -1326.792    6450.1465   -617.75388    4157.0416    309.17138     7279 
434000000   -4847.2785   -1168.4271    6578.6388   -541.68361     4220.535    315.33033     7277 
435000000   -4714.8872   -1127.7374    6472.6432    -561.3833    4148.5331     310.2497     7279 
436000000   -4880.8802   -1389.2897    6398.0412   -576.80725    4068.3978    306.67384     7277 
437000000   -4850.7522   -1294.2101    6511.7846   -612.17525    4168.7174    312.12585     7278 
438000000   -4910.2522    -1374.665    6507.4365   -592.83073     4128.418    311.91743     7280 
439000000   -4924.8263   -1418.1914    6507.2498   -617.60348    4124.2384    311.90848     7281 
440000000   -4831.5131   -1310.3333    6471.9388    -580.9913    4102.1711    310.21594     7279 
441000000    -4911.052   -1313.6082    6442.5519   -542.88139    4140.3252    308.80735     7278 
442000000   -4956.2493   -1328.6706    6495.6879    -555.0789    4182.6576    311.35429     7277 
443000000   -4947.3215   -1261.0905    6336.3523   -529.69601     4215.927    303.71694     7272 
444000000   -4959.9218   -1359.8727    6495.8026   -587.11379    4187.1629    311.35979     7273 
445000000   -4872.4924   -1190.2247    6504.1277   -549.86731    4232.1349    311.75883     7273 
446000000   -4915.3722     -1365.98    6435.0341   -539.08188    4088.4741      308.447     7275 
447000000   -4960.0443   -1351.2207    6382.0517   -611.89686    4220.7204    305.90743     7278 
448000000   -4835.1148   -1342.7453    6544.1964   -613.47616    4105.8457    313.67942     7275 
449000000   -4937.5251   -1275.7145     6527.226   -489.90198    4151.7126    312.86599     7278 
450000000   -4877.2862   -1399.5469    6286.2548   -582.91838    4060.6577    301.31565     7278 
451000000   -4950.4862   -1432.1819     6504.652   -621.40782    4139.7122    311.78396     7278 
452000000   -4995.7021    -1476.933    6433.1546   -571.24582     4090.015    308.35692     7276 
453000000    -5005.538   -1510.4353     6528.504   -618.37523    4113.4779    312.92725     7279 
454000000    -4903.853   -1340.1763    6464.9674   -569.93359    4133.6102    309.88178     7280 
455000000   -4990.0189   -1528.5323    6439.6192    -663.7668    4125.2533    308.66678     7279 
456000000   -4986.6678    -1451.105    6398.0055   -580.87892    4116.4417    306.67213     7279 
457000000   -5054.6271   -1407.8061    6536.7884   -527.10205     4173.923    313.32434     7279 
458000000   -4982.2314   -1407.3575    6391.4214   -573.74556    4148.6194    306.35654     7275 
459000000   -5026.2443   -1532.8799     6498.779   -554.71228    4048.0767    311.50245     7276 
460000000   -4863.2303   -1425.1545     6558.906   -622.91521     4060.991    314.38449     7277 
461000000   -5029.9361   -1440.5291    6477.2442   -545.05354    4134.4605    310.47024     7274 
462000000   -4957.8669   -1470.0171    6499.6542    -632.2436    4120.0934     311.5444     7276 
463000000    -4931.363   -1367.5556    6461.8499   -554.49643    4118.3038    309.73235     7276 
464000000   -5000.1728   -1443.3348    6382.3842     -600.105     4156.943    305.92337     7280 
465000000   -4892.0249   -1397.3389    6469.1771   -574.61488    4069.3009    310.08356     7275 
466000000   -5025.3435   -1452.6306    6441.5176   -581.84114    4154.5541    308.75778     7275 
467000000   -4988.6431   -1423.9476    6483.3701   -580.52716    4145.2227    310.76387     7276 
468000000   -4966.9218    -1432.675    6359.5565   -616.21987    4150.4667    304.82918     7277 
469000000   -4949.1794    -1356.475    6446.8629   -554.78283    4147.4872    309.01399     7279 
470000000   -4967.8926    -1411.308     6417.448   -585.32116    4141.9058    307.60406     7279 
471000000   -4971.8568   -1365.1843    6387.7535   -548.24132    4154.9139    306.18073     7277 
472000000   -5004.2811   -1430.0668    6415.4423   -594.04168    4168.2559    307.50792     7279 
473000000   -5035.5617   -1538.4991    6362.3407   -604.45951    4101.5222    304.96263     7280 
474000000   -4960.4897   -1450.1275    6497.2077   -578.53211    4088.8943    311.42714     7280 
475000000   -4929.4932   -1311.8276    6338.5428   -543.14496    4160.8106    303.82194     7282 
476000000   -4890.8521   -1410.5656     6527.631   -608.02827    4088.3148     312.8854     7282 
477000000    -4961.837   -1478.7157    6548.4252   -623.09137    4106.2127    313.88212     7280 
478000000   -4921.0332   -1445.2041    6404.6785   -676.93694     4152.766    306.99199     7282 
479000000   -4887.8596   -1292.2564    6495.7015   -571.43255    4167.0357    311.35494     7282 
480000000   -5055.6106    -1438.719    6463.0542   -574.94005    4191.8316    309.79008     7279 
481000000   -4949.9854   -1341.9922    6519.4657    -539.5712    4147.5644    312.49402     7278 
482000000   -4925.5433   -1427.7194    6481.1226    -670.1299    4167.9537    310.65614     7281 
483000000   -5035.3558   -1576.3408     6573.667   -604.29568    4063.3107    315.09202     7281 
484000000   -4910.0532   -1445.5036    6391.1499   -611.74168    4076.2913    306.34352     7286 
485000000    -5017.998   -1500.5772    6449.4444   -630.44492    4147.8657    309.13773     7282 
486000000   -5049.2584   -1559.9788    6530.5962   -648.46817    4137.7477    313.02753     7280 
487000000   -4905.1766   -1299.0674    6499.5254   -553.22907    4159.3382    311.53823     7275 
488000000    -5003.416   -1391.1102    6447.1974   -565.21271    4177.5185    309.03002     7282 
489000000   -4921.0529   -1299.8345    6442.6907   -568.63684    4189.8552      308.814     7276 
490000000    -5019.935   -1497.0053    6489.4964   -620.97654    4143.9063    311.05752     7282 
491000000    -4935.935    -1422.225    6497.0374   -581.00701    4094.7171    311.41897     7283 
492000000   -4978.3517   -1436.2787    6467.3446   -546.18449    4088.2575    309.99573     7284 
493000000   -4957.1828   -1542.8584    6534.6264    -615.9957    4030.3201    313.22071     7283 
494000000   -4949.6183   -1502.7256    6379.8972   -624.93091    4071.8236    305.80416     7284 
495000000   -4987.6583   -1538.8821    6562.1677    -554.7715    4003.5477    314.54083     7285 
496000000   -5199.0774   -1673.7383    6424.6117   -561.08627    4086.4253    307.94743     7285 
497000000   -5027.8369   -1574.1468    6518.7648   -649.35892    4103.0489    312.46042     7282 
498000000   -4948.9772   -1446.8572    6505.6545   -622.72987    4124.8499    311.83201     7285 
499000000   -4982.4723   -1487.4384    6575.1652   -597.94923    4092.9831    315.16383     7279 
500000000   -4962.4799   -1431.8526    6472.8824   -602.44553    4133.0729    310.26117     7283 
Loop time of 24470.9 on 14 procs for 100000000 steps with 7000 atoms

Performance: 10592.181 ns/day, 0.002 hours/ns, 4086.490 timesteps/s
99.5% CPU use with 14 MPI tasks x no OpenMP threads

MPI task timing breakdown:
Section |  min time  |  avg time  |  max time  |%varavg| %total
---------------------------------------------------------------
Pair    | 6287.2     | 7055.4     | 8162       | 718.8 | 28.83
Bond    | 1067.2     | 1122.6     | 1190.9     | 121.5 |  4.59
Neigh   | 4452.3     | 4477.7     | 4511.8     |  27.3 | 18.30
Comm    | 5818       | 7015.3     | 8048       | 808.6 | 28.67
Output  | 0.45164    | 0.45196    | 0.45209    |   0.0 |  0.00
Modify  | 3808.9     | 3898.5     | 4035.1     | 136.5 | 15.93
Other   |            | 901        |            |       |  3.68

Nlocal:    500 ave 533 max 459 min
Histogram: 1 0 2 2 1 1 2 2 2 1
Nghost:    830.357 ave 1018 max 624 min
Histogram: 1 1 2 4 0 0 0 1 1 4
Neighs:    9593.14 ave 11128 max 7696 min
Histogram: 2 0 0 2 1 3 2 1 0 3

Total # of neighbors = 134304
Ave neighs/atom = 19.1863
Ave special neighs/atom = 7.45114
Neighbor list builds = 6160461
Dangerous builds = 0

write_restart final_state_${fName}.restart
write_restart final_state_Run3_S10N05_rlx.restart
write_data final_state_${fName}.DATA
write_data final_state_Run3_S10N05_rlx.DATA
Total wall time: 6:47:51
