
units           real
boundary p p p
atom_style      full

read_restart final_state_Relax_Es_10kT_Ens_0.5kT.restart
  restoring atom style full from restart
  orthogonal box = (-500 -500 -500) to (500 500 500)
  1 by 2 by 7 MPI processor grid
  restoring pair style lj/cut from restart
  restoring bond style hybrid from restart
  restoring angle style cosine from restart
  7000 atoms
  7283 bonds
  6600 angles
  3 = max # of 1-2 neighbors
  4 = max # of 1-3 neighbors
  8 = max # of 1-4 neighbors
  16 = max # of special neighbors
  special bonds CPU = 0.0028396 secs
  read_restart CPU = 0.177449 secs

change_box all x final -500.0 500.0 y final -500.0 500.0 z final -500.0 500.0
  orthogonal box = (-500 -500 -500) to (500 500 500)
  orthogonal box = (-500 -500 -500) to (500 500 500)
  orthogonal box = (-500 -500 -500) to (500 500 500)

neighbor 1.9 bin
neigh_modify every 1 delay 1 check yes

angle_style  cosine
angle_coeff   *  2  # K (energy unit)

bond_style 		 hybrid harmonic harmonic/shift/cut
bond_coeff   1   harmonic 3   10
bond_coeff   2   harmonic 3   10
bond_coeff   3   harmonic/shift/cut 5.922   11.22   12.72


pair_style lj/cut 25

pair_coeff  * * 0.296 10 25

special_bonds lj  0 1 1 angle yes
  3 = max # of 1-2 neighbors
  4 = max # of 1-3 neighbors
  8 = max # of 1-4 neighbors
  17064 = # of 1-3 neighbors before angle trim
  13200 = # of 1-3 neighbors after angle trim
  16 = max # of special neighbors
  special bonds CPU = 0.00158217 secs

variable t equal step
variable steps equal 100000000
variable dt_thermo equal 1000000
variable dt_movie equal 5000000
variable dt_restart equal 10000000

group rxnSites type 1 3
1000 atoms in group rxnSites

# fix ID group-ID(atom-types) bond/create Nevery itype jtype Rmin bondtype (prob values = fraction seed) (iparam maxbond newType)
fix bondc rxnSites bond/create/random 20 1 3 12.72 3 prob 1 ${seed} iparam 1 1 jparam 1 3
fix bondc rxnSites bond/create/random 20 1 3 12.72 3 prob 1 502214 iparam 1 1 jparam 1 3

# fix ID group-ID bond/break Nevery bondtype Rmax keyword values ...
fix bondbr rxnSites bond/break 20 3 12.72 prob 1 ${seed}
fix bondbr rxnSites bond/break 20 3 12.72 prob 1 502214

variable frmbnd equal f_bondc[2]
variable brkbnd equal f_bondbr[2]
fix saveBond all print ${dt_thermo} "$t ${frmbnd} ${brkbnd}" file BondData_${fName}.dat screen no
fix saveBond all print 1000000 "$t ${frmbnd} ${brkbnd}" file BondData_${fName}.dat screen no
fix saveBond all print 1000000 "$t ${frmbnd} ${brkbnd}" file BondData_Run5_S10N05_rlx.dat screen no

thermo_style    custom step epair pe ke ebond eangle temp bonds
thermo          ${dt_thermo}
thermo          1000000
fix saveThermo all print ${dt_thermo} "$t $(temp) $(ke) $(pe) $(epair) $(ebond) $(eangle) $(bonds)" file Thermo_${fName}.dat title "# Steps Temp KinEng PotEng Epair Ebond Eangle Bonds" screen no
fix saveThermo all print 1000000 "$t $(temp) $(ke) $(pe) $(epair) $(ebond) $(eangle) $(bonds)" file Thermo_${fName}.dat title "# Steps Temp KinEng PotEng Epair Ebond Eangle Bonds" screen no
fix saveThermo all print 1000000 "$t $(temp) $(ke) $(pe) $(epair) $(ebond) $(eangle) $(bonds)" file Thermo_Run5_S10N05_rlx.dat title "# Steps Temp KinEng PotEng Epair Ebond Eangle Bonds" screen no

############################ Langevin Dynamics ###############################
fix fxlan all langevin $T $T 500 ${seed}
fix fxlan all langevin 310 $T 500 ${seed}
fix fxlan all langevin 310 310 500 ${seed}
fix fxlan all langevin 310 310 500 502214
fix fxnve all nve

comm_style tiled
fix fxbal all balance 1000 1.1 rcb # load balance for spatially heterogeneous system

timestep 30

dump coor all custom ${dt_movie} traj_${fName}.dump id type mol mass x y z xu yu zu
dump coor all custom 5000000 traj_${fName}.dump id type mol mass x y z xu yu zu
dump coor all custom 5000000 traj_Run5_S10N05_rlx.dump id type mol mass x y z xu yu zu

restart ${dt_restart} ${fName}_tp_*.restart
restart 10000000 ${fName}_tp_*.restart
restart 10000000 Run5_S10N05_rlx_tp_*.restart
run ${steps}
run 100000000
Neighbor list info ...
  update every 1 steps, delay 1 steps, check yes
  max neighbors/atom: 2000, page size: 100000
  master list distance cutoff = 26.9
  ghost atom cutoff = 26.9
  binsize = 13.45, bins = 75 75 75
  2 neighbor lists, perpetual/occasional/extra = 1 1 0
  (1) pair lj/cut, perpetual
      attributes: half, newton on
      pair build: half/bin/newton
      stencil: half/bin/3d/newton
      bin: standard
  (2) fix bond/create/random, occasional, copy from (1)
      attributes: half, newton on
      pair build: copy
      stencil: none
      bin: none
Per MPI rank memory allocation (min/avg/max) = 10.32 | 10.75 | 11.78 Mbytes
Step E_pair PotEng KinEng E_bond E_angle Temp Bonds 
400000000   -4811.3255   -1250.4799    6427.2076   -619.69659    4180.5422    308.07186     7283 
401000000   -4931.7947   -1397.9419    6477.9735   -585.26806    4119.1209     310.5052     7280 
402000000   -4997.3601   -1443.9148    6381.4409   -639.90226    4193.3476    305.87815     7285 
403000000   -4834.3861   -1405.7733    6455.9694   -645.73621     4074.349    309.45049     7284 
404000000   -4780.6118   -1243.0018    6451.2557    -586.2377    4123.8478    309.22455     7278 
405000000   -4921.0662    -1390.079    6438.7884   -611.36224    4142.3494    308.62696     7281 
406000000   -4834.6026   -1346.9326    6508.3469   -641.51443    4129.1844    311.96107     7284 
407000000   -4908.9258   -1362.6688     6539.404   -588.17262    4134.4297    313.44971     7280 
408000000   -4820.3143   -1286.6531    6595.7654   -565.50952    4099.1706    316.15125     7278 
409000000   -4817.2469   -1186.9929    6443.6496   -578.59849    4208.8525    308.85997     7279 
410000000    -4878.513   -1308.7674    6599.0839   -640.25628    4210.0019    316.31031     7279 
411000000    -4890.821   -1386.7126    6341.7506    -645.9047    4150.0132     303.9757     7278 
412000000   -4981.5743   -1273.3646    6523.3584   -546.50912    4254.7188     312.6806     7277 
413000000   -5034.9797   -1449.7395     6488.271   -600.32943    4185.5696    310.99878     7283 
414000000   -4936.7723   -1365.9163    6349.9334   -604.80502    4175.6609    304.36792     7280 
415000000   -4937.9106   -1226.9477    6496.5948   -560.11288    4271.0758    311.39776     7280 
416000000   -5034.4951   -1394.3416    6455.4927   -648.47995    4288.6334    309.42764     7281 
417000000   -4876.2902   -1346.6168     6552.715   -640.63866    4170.3121    314.08774     7276 
418000000   -4756.6495   -1313.5169    6437.5165   -671.00929     4114.142    308.56599     7281 
419000000    -4854.867   -1240.0538    6420.2449   -606.80535    4221.6186    307.73812     7284 
420000000   -4922.1016   -1298.1348    6433.8408   -594.78399    4218.7508    308.38981     7283 
421000000    -4887.517   -1310.0848    6474.2932   -559.88356    4137.3157    310.32879     7280 
422000000   -4939.1097   -1411.0364     6437.362   -598.26467     4126.338    308.55859     7281 
423000000   -4958.5232   -1318.0214    6613.6782   -577.42339    4217.9252    317.00986     7278 
424000000   -4982.9425   -1429.6894    6451.3546    -590.0671    4143.3202    309.22928     7281 
425000000   -4852.1072   -1178.8202    6446.4952   -548.34103    4221.6281    308.99636     7278 
426000000   -4935.6791   -1370.1575    6480.1991   -562.80193    4128.3236    310.61187     7279 
427000000   -4895.5351   -1342.9242    6456.3949   -667.42276    4220.0337    309.47088     7281 
428000000    -4958.413   -1364.7169    6485.9859   -560.51404    4154.2102    310.88925     7280 
429000000   -4885.6855   -1263.9506    6354.5974    -601.0345    4222.7695    304.59148     7283 
430000000   -4865.6004   -1271.5773    6505.0691   -603.89003    4197.9131    311.80395     7282 
431000000   -4889.3349    -1199.385    6456.4748    -514.8226    4204.7725    309.47471     7282 
432000000   -4816.6636   -1164.8193    6331.2381    -535.5974    4187.4417    303.47181     7281 
433000000   -4863.8882   -1352.2792     6411.002   -584.92089    4096.5299    307.29509     7280 
434000000   -4904.6746   -1360.4112    6467.0828   -667.19062     4211.454    309.98318     7280 
435000000   -4892.2833   -1294.8243    6369.5462   -561.91442    4159.3735    305.30801     7281 
436000000   -4867.6163   -1336.9134    6382.6488   -630.26761    4160.9705    305.93605     7282 
437000000   -4877.9374   -1345.0112    6467.1313   -575.51919    4108.4454     309.9855     7282 
438000000   -4995.3551   -1517.8649    6462.4949   -620.30141    4097.7916    309.76327     7280 
439000000   -4936.1467   -1334.7942    6416.5085   -617.51138    4218.8639    307.55903     7282 
440000000   -4859.3192   -1289.3966    6394.0296   -613.65084    4183.5735    306.48156     7279 
441000000   -4854.1156     -1324.84    6451.8168   -626.22363    4155.4992    309.25144     7281 
442000000   -4850.4445   -1373.5157    6567.7046   -633.58677    4110.5155    314.80623     7281 
443000000   -4932.2191   -1490.8716     6482.581   -651.94254      4093.29    310.72604     7281 
444000000   -4849.0758   -1317.0016      6435.45   -575.92494    4107.9992    308.46694     7279 
445000000    -4742.341   -1322.6354    6490.4021   -654.00425    4073.7098    311.10093     7283 
446000000   -4948.1593   -1446.6269    6476.0282   -677.70604    4179.2385    310.41195     7284 
447000000    -4956.263   -1396.1229    6375.5898   -554.05149    4114.1916     305.5977     7280 
448000000   -4830.9382   -1279.0874    6412.0314   -599.45392    4151.3047    307.34443     7278 
449000000   -4874.9296   -1324.7463    6519.8536   -587.73668    4137.9199    312.51261     7278 
450000000   -4925.5814   -1422.2049    6562.5278   -600.71746     4104.094    314.55809     7281 
451000000   -4892.2123   -1313.0095    6508.0528    -558.2511    4137.4539    311.94697     7281 
452000000   -4810.6641   -1397.4762    6532.9147   -682.92902    4096.1169    313.13866     7284 
453000000   -4925.2631   -1465.1542    6487.0416   -623.66268    4083.7715    310.93985     7282 
454000000   -4909.4281   -1310.5529    6449.6781   -587.87647    4186.7517    309.14893     7284 
455000000   -4972.2624   -1397.5518    6386.1255   -627.28652    4201.9971     306.1027     7282 
456000000   -4893.5163   -1314.4886    6443.3745   -575.10536    4154.1331    308.84678     7284 
457000000   -5068.9125   -1581.8517    6428.9976   -640.67995    4127.7407    308.15766     7285 
458000000   -4904.3237   -1397.1447    6411.5388   -608.22149    4115.4004    307.32082     7288 
459000000   -4920.0584   -1420.0628    6506.7583   -631.16428    4131.1599    311.88492     7285 
460000000   -4936.6359   -1335.5966    6459.0156   -566.15109    4167.1903     309.5965     7285 
461000000   -4985.9001   -1425.6946    6463.9227   -609.66195    4169.8675    309.83171     7279 
462000000   -4850.9381   -1317.8034    6584.1117   -602.91304    4136.0477    315.59266     7280 
463000000   -4869.8881    -1246.243    6509.3156    -586.7257    4210.3708     312.0075     7280 
464000000   -4932.3816   -1267.4527    6459.8963   -585.78449    4250.7135    309.63871     7277 
465000000   -4972.9131   -1330.7558    6457.8984   -481.95745    4124.1147    309.54295     7277 
466000000   -4881.4426   -1198.9413    6402.2216   -518.80645    4201.3077    306.87422     7279 
467000000   -4927.7184   -1344.4315    6448.4908   -600.38115     4183.668    309.09202     7279 
468000000   -4911.3599   -1461.3851    6303.5852   -597.68613    4047.6609    302.14633     7277 
469000000    -4927.262   -1409.5821    6481.3094   -650.15338    4167.8332    310.66509     7280 
470000000   -4937.2006   -1364.2288    6405.1984   -614.66024    4187.6321    307.01691     7281 
471000000   -4981.2886   -1473.8567    6433.3835   -643.42675    4150.8587    308.36789     7282 
472000000   -4888.8791   -1313.7381    6581.7522   -557.48083    4132.6218    315.47957     7276 
473000000   -4920.7431   -1378.7656    6557.7022   -586.52468    4128.5022    314.32679     7276 
474000000   -4908.4088   -1236.2683    6481.4727   -565.28517    4237.4256    310.67292     7276 
475000000   -4917.3005   -1386.7019    6518.5431   -623.99406    4154.5926     312.4498     7277 
476000000    -4976.984   -1318.2432    6509.4559   -589.58528    4248.3261    312.01423     7278 
477000000    -5006.225   -1446.8795    6462.6975   -626.05343     4185.399    309.77298     7277 
478000000   -4919.4332    -1288.197    6522.9045   -580.30494    4211.5411    312.65885     7276 
479000000   -4903.9164   -1300.5092    6449.2799   -575.81833    4179.2256    309.12984     7274 
480000000   -4908.2879   -1263.1839    6501.6915   -557.80711    4202.9111    311.64206     7280 
481000000   -4862.9677   -1284.7207      6538.54   -561.12062    4139.3677     313.4083     7276 
482000000   -4877.5864     -1321.42    6495.3815    -566.7539    4122.9203     311.3396     7273 
483000000   -5013.6931   -1424.9685    6379.2325   -606.72956    4195.4542     305.7723     7276 
484000000   -4851.4708   -1295.9266    6323.2325   -586.35538    4141.8995    303.08808     7277 
485000000   -4904.8194   -1313.0427    6435.0168   -539.90336      4131.68    308.44618     7277 
486000000   -4907.4548   -1379.6571    6443.8632    -558.3528    4086.1505     308.8702     7278 
487000000   -4902.7858   -1351.9069    6522.5516   -631.01204    4181.8909    312.64194     7278 
488000000   -4898.4288   -1332.1538    6500.5958   -599.95711    4166.2321    311.58954     7276 
489000000   -4872.3783   -1404.4609    6486.2941   -595.13707    4063.0545    310.90402     7277 
490000000   -4951.7539   -1388.5245    6396.8521   -572.47181    4135.7013    306.61685     7281 
491000000   -4968.1013    -1403.848    6464.3361   -567.40503    4131.6582    309.85152     7281 
492000000   -4939.3172   -1358.6551    6432.9939   -557.20664    4137.8687    308.34921     7279 
493000000   -4833.3944    -1261.875     6403.753   -595.98942    4167.5088    306.94763     7279 
494000000   -4948.3303   -1462.4144    6433.8596   -621.24513     4107.161    308.39071     7281 
495000000   -5015.5352   -1437.9644    6514.7441   -587.62838    4165.1992     312.2677     7282 
496000000   -4988.4397   -1555.0731    6410.5474   -650.19748     4083.564     307.2733     7282 
497000000   -4991.3284    -1491.422    6515.1545   -605.07781    4104.9842    312.28737     7280 
498000000   -5029.8459   -1501.9802    6538.6598   -619.79763    4147.6633    313.41404     7282 
499000000   -5014.5205   -1526.6472    6449.8029   -662.67367    4150.5469    309.15491     7281 
500000000   -4999.2484   -1525.0793    6296.0103    -622.4684    4096.6375    301.78325     7279 
Loop time of 25114.6 on 14 procs for 100000000 steps with 7000 atoms

Performance: 10320.679 ns/day, 0.002 hours/ns, 3981.744 timesteps/s
99.6% CPU use with 14 MPI tasks x no OpenMP threads

MPI task timing breakdown:
Section |  min time  |  avg time  |  max time  |%varavg| %total
---------------------------------------------------------------
Pair    | 5868       | 6824.6     | 7543.3     | 641.2 | 27.17
Bond    | 1070.2     | 1085.5     | 1104.2     |  28.6 |  4.32
Neigh   | 4278.4     | 4310       | 4345.6     |  31.1 | 17.16
Comm    | 6419.4     | 7432       | 8970       | 845.8 | 29.59
Output  | 0.44937    | 0.44952    | 0.4497     |   0.0 |  0.00
Modify  | 3983.1     | 4020.7     | 4054.5     |  29.2 | 16.01
Other   |            | 1441       |            |       |  5.74

Nlocal:    500 ave 532 max 477 min
Histogram: 3 3 0 1 1 1 1 2 1 1
Nghost:    821.714 ave 991 max 632 min
Histogram: 2 1 1 1 3 0 1 0 1 4
Neighs:    9612.14 ave 10767 max 8092 min
Histogram: 2 2 0 1 0 2 1 1 2 3

Total # of neighbors = 134570
Ave neighs/atom = 19.2243
Ave special neighs/atom = 7.43629
Neighbor list builds = 6160638
Dangerous builds = 0

write_restart final_state_${fName}.restart
write_restart final_state_Run5_S10N05_rlx.restart
write_data final_state_${fName}.DATA
write_data final_state_Run5_S10N05_rlx.DATA
Total wall time: 6:58:35
