
units           real
boundary p p p
atom_style      full

read_restart final_state_Relax_Es_10kT_Ens_0.5kT.restart
  restoring atom style full from restart
  orthogonal box = (-500 -500 -500) to (500 500 500)
  1 by 2 by 7 MPI processor grid
  restoring pair style lj/cut from restart
  restoring bond style hybrid from restart
  restoring angle style cosine from restart
  7000 atoms
  7283 bonds
  6600 angles
  3 = max # of 1-2 neighbors
  4 = max # of 1-3 neighbors
  8 = max # of 1-4 neighbors
  16 = max # of special neighbors
  special bonds CPU = 0.0182756 secs
  read_restart CPU = 0.422088 secs

change_box all x final -500.0 500.0 y final -500.0 500.0 z final -500.0 500.0
  orthogonal box = (-500 -500 -500) to (500 500 500)
  orthogonal box = (-500 -500 -500) to (500 500 500)
  orthogonal box = (-500 -500 -500) to (500 500 500)

neighbor 1.9 bin
neigh_modify every 1 delay 1 check yes

angle_style  cosine
angle_coeff   *  2  # K (energy unit)

bond_style 		 hybrid harmonic harmonic/shift/cut
bond_coeff   1   harmonic 3   10
bond_coeff   2   harmonic 3   10
bond_coeff   3   harmonic/shift/cut 5.922   11.22   12.72


pair_style lj/cut 25

pair_coeff  * * 0.296 10 25

special_bonds lj  0 1 1 angle yes
  3 = max # of 1-2 neighbors
  4 = max # of 1-3 neighbors
  8 = max # of 1-4 neighbors
  17064 = # of 1-3 neighbors before angle trim
  13200 = # of 1-3 neighbors after angle trim
  16 = max # of special neighbors
  special bonds CPU = 0.00197462 secs

variable t equal step
variable steps equal 100000000
variable dt_thermo equal 1000000
variable dt_movie equal 5000000
variable dt_restart equal 10000000

group rxnSites type 1 3
1000 atoms in group rxnSites

# fix ID group-ID(atom-types) bond/create Nevery itype jtype Rmin bondtype (prob values = fraction seed) (iparam maxbond newType)
fix bondc rxnSites bond/create/random 20 1 3 12.72 3 prob 1 ${seed} iparam 1 1 jparam 1 3
fix bondc rxnSites bond/create/random 20 1 3 12.72 3 prob 1 137021 iparam 1 1 jparam 1 3

# fix ID group-ID bond/break Nevery bondtype Rmax keyword values ...
fix bondbr rxnSites bond/break 20 3 12.72 prob 1 ${seed}
fix bondbr rxnSites bond/break 20 3 12.72 prob 1 137021

variable frmbnd equal f_bondc[2]
variable brkbnd equal f_bondbr[2]
fix saveBond all print ${dt_thermo} "$t ${frmbnd} ${brkbnd}" file BondData_${fName}.dat screen no
fix saveBond all print 1000000 "$t ${frmbnd} ${brkbnd}" file BondData_${fName}.dat screen no
fix saveBond all print 1000000 "$t ${frmbnd} ${brkbnd}" file BondData_Run6_S10N05_rlx.dat screen no

thermo_style    custom step epair pe ke ebond eangle temp bonds
thermo          ${dt_thermo}
thermo          1000000
fix saveThermo all print ${dt_thermo} "$t $(temp) $(ke) $(pe) $(epair) $(ebond) $(eangle) $(bonds)" file Thermo_${fName}.dat title "# Steps Temp KinEng PotEng Epair Ebond Eangle Bonds" screen no
fix saveThermo all print 1000000 "$t $(temp) $(ke) $(pe) $(epair) $(ebond) $(eangle) $(bonds)" file Thermo_${fName}.dat title "# Steps Temp KinEng PotEng Epair Ebond Eangle Bonds" screen no
fix saveThermo all print 1000000 "$t $(temp) $(ke) $(pe) $(epair) $(ebond) $(eangle) $(bonds)" file Thermo_Run6_S10N05_rlx.dat title "# Steps Temp KinEng PotEng Epair Ebond Eangle Bonds" screen no

############################ Langevin Dynamics ###############################
fix fxlan all langevin $T $T 500 ${seed}
fix fxlan all langevin 310 $T 500 ${seed}
fix fxlan all langevin 310 310 500 ${seed}
fix fxlan all langevin 310 310 500 137021
fix fxnve all nve

comm_style tiled
fix fxbal all balance 1000 1.1 rcb # load balance for spatially heterogeneous system

timestep 30

dump coor all custom ${dt_movie} traj_${fName}.dump id type mol mass x y z xu yu zu
dump coor all custom 5000000 traj_${fName}.dump id type mol mass x y z xu yu zu
dump coor all custom 5000000 traj_Run6_S10N05_rlx.dump id type mol mass x y z xu yu zu

restart ${dt_restart} ${fName}_tp_*.restart
restart 10000000 ${fName}_tp_*.restart
restart 10000000 Run6_S10N05_rlx_tp_*.restart
run ${steps}
run 100000000
Neighbor list info ...
  update every 1 steps, delay 1 steps, check yes
  max neighbors/atom: 2000, page size: 100000
  master list distance cutoff = 26.9
  ghost atom cutoff = 26.9
  binsize = 13.45, bins = 75 75 75
  2 neighbor lists, perpetual/occasional/extra = 1 1 0
  (1) pair lj/cut, perpetual
      attributes: half, newton on
      pair build: half/bin/newton
      stencil: half/bin/3d/newton
      bin: standard
  (2) fix bond/create/random, occasional, copy from (1)
      attributes: half, newton on
      pair build: copy
      stencil: none
      bin: none
Per MPI rank memory allocation (min/avg/max) = 10.32 | 10.75 | 11.78 Mbytes
Step E_pair PotEng KinEng E_bond E_angle Temp Bonds 
400000000   -4811.3255   -1250.4799    6427.2076   -619.69659    4180.5422    308.07186     7283 
401000000   -5097.5103   -1482.1864    6462.3435   -613.04995    4228.3738    309.75601     7285 
402000000   -5037.1149   -1492.6219    6380.6227    -586.8314    4131.3244    305.83893     7285 
403000000   -4966.8181   -1397.0312    6447.9465   -630.10885    4199.8957    309.06593     7286 
404000000   -4965.2912   -1415.2801    6511.1156   -574.29525    4124.3063    312.09378     7286 
405000000   -4903.9358   -1416.5865     6429.113   -657.39644    4144.7457    308.16319     7285 
406000000   -4979.0941   -1503.1439    6507.0576   -614.39934    4090.3495    311.89927     7284 
407000000   -5027.7322   -1433.8245      6527.28   -598.65719    4192.5649    312.86858     7282 
408000000   -5052.1959   -1541.5926    6367.3787   -622.46522    4133.0684    305.20412     7282 
409000000   -4899.1356   -1373.9589    6481.2294   -581.68243    4106.8592    310.66126     7283 
410000000   -5063.7283   -1564.5548    6449.6864   -619.23449     4118.408    309.14933     7280 
411000000   -4964.6401    -1406.857    6546.1133   -593.63071    4151.4138     313.7713     7282 
412000000   -4924.9555   -1407.8261    6379.7366   -678.49624    4195.6257    305.79646     7284 
413000000   -4897.3373   -1296.8788    6479.1769    -590.8054    4191.2639    310.56288     7281 
414000000   -4843.5067   -1266.8557    6308.3832   -551.78369    4128.4347    302.37632     7281 
415000000   -4992.7585   -1455.5642    6470.6788   -628.43975    4165.6341    310.15554     7285 
416000000    -4888.067   -1252.8032    6380.0157   -506.44305    4141.7068    305.80984     7279 
417000000   -4869.9869   -1362.9622    6486.8016   -609.34158    4116.3663    310.92835     7280 
418000000   -4917.8773   -1426.1902    6396.2882   -633.93071    4125.6178    306.58982     7282 
419000000   -4984.3934   -1428.5109    6447.9562   -613.19569    4169.0782    309.06639     7279 
420000000   -4944.4328   -1381.8528    6503.8587   -631.14006    4193.7201    311.74593     7277 
421000000   -4941.6149   -1419.6468     6509.208   -601.84253    4123.8106    312.00234     7277 
422000000   -5000.1748   -1380.5117    6487.6011   -528.99301    4148.6561    310.96667     7278 
423000000   -4970.4386   -1346.0493    6456.6364   -555.23309    4179.6224    309.48246     7277 
424000000   -4976.7361   -1437.2954    6407.0261   -541.40885    4080.8496    307.10451     7276 
425000000   -4864.8574   -1213.4394    6440.8869   -563.78198    4215.1999    308.72755     7278 
426000000   -4919.9501   -1290.9726    6521.2663   -518.69087    4147.6683    312.58033     7276 
427000000   -5028.1275   -1355.8683    6594.6649   -531.30642    4203.5656     316.0985     7280 
428000000   -4942.1066   -1352.6406    6540.6302     -569.851     4159.317    313.50848     7279 
429000000   -5007.6495   -1465.7533    6486.4337   -609.58581    4151.4821    310.91071     7279 
430000000   -4987.6836    -1430.969    6487.4963   -646.86523    4203.5798    310.96165     7278 
431000000   -4858.1033   -1287.3621    6396.6246   -532.20175    4102.9429    306.60594     7278 
432000000   -4974.0978   -1457.7841    6434.0374   -635.36655    4151.6803    308.39923     7275 
433000000   -4977.8837   -1291.9277    6413.3577   -501.07311    4187.0291      307.408     7276 
434000000   -4890.3229   -1339.1462    6470.5177   -629.72602    4180.9028    310.14782     7276 
435000000   -4987.6045   -1357.3339    6485.8283   -508.36905    4138.6397     310.8817     7280 
436000000   -4949.2973    -1404.251    6714.4048   -589.28452    4134.3308    321.83793     7277 
437000000   -4877.5178    -1395.497    6472.9799    -612.1755    4094.1963    310.26584     7283 
438000000   -4953.7069   -1361.0117     6483.811   -550.37743    4143.0726      310.785     7280 
439000000   -5037.6915   -1513.3573     6571.673   -577.77801    4102.1122    314.99645     7277 
440000000   -4936.5765   -1458.3135    6500.0259   -605.42525    4083.6882    311.56222     7278 
441000000   -4973.0126   -1439.8977    6392.5926   -590.00032    4123.1152    306.41268     7277 
442000000   -4915.4348   -1293.9037     6510.326   -548.39609    4169.9272    312.05593     7275 
443000000    -4939.006   -1402.3066    6501.8003   -563.69798    4100.3974    311.64727     7276 
444000000   -4903.8777   -1276.3099    6447.3581   -551.38351    4178.9513    309.03772     7274 
445000000   -4917.7846   -1373.6256    6366.4844   -578.75426    4122.9133    305.16125     7276 
446000000   -4892.7475   -1400.4529    6482.2299   -631.75314    4124.0478    310.70922     7279 
447000000   -4984.2299   -1365.4744     6546.668   -618.18477    4236.9402    313.79789     7281 
448000000   -4888.6668   -1301.1207    6515.4272   -586.89708    4174.4431    312.30045     7280 
449000000   -5025.8104    -1482.843    6486.0246   -581.38616    4124.3536     310.8911     7279 
450000000   -4844.9072   -1239.3049    6390.2574   -543.87496    4149.4773    306.30075     7277 
451000000   -4924.1518   -1319.4386    6452.9252   -609.01128    4213.7245    309.30457     7279 
452000000   -5079.6642   -1551.0226    6365.1226   -569.22768    4097.8694    305.09597     7278 
453000000   -4945.7024   -1385.8399    6397.7781   -606.93593    4166.7984    306.66123     7281 
454000000    -5015.032   -1457.7843    6514.1541   -609.20735    4166.4551    312.23942     7276 
455000000   -4917.8228   -1297.2538    6439.0058   -583.73676    4204.3057    308.63738     7280 
456000000   -4949.2188   -1413.4537    6588.8807   -598.63532    4134.4004    315.82125     7281 
457000000   -4852.9035   -1377.7377    6547.8303   -609.02868    4084.1945    313.85361     7278 
458000000   -4935.2126   -1359.2162    6438.3318   -585.52846    4161.5249    308.60507     7280 
459000000   -4851.6163   -1326.3947    6374.2695   -627.23041     4152.452    305.53441     7277 
460000000   -4968.5666   -1283.6476    6486.5069   -561.50501    4246.4241    310.91422     7277 
461000000   -4929.9187   -1316.5289    6442.5583   -571.35479    4184.7446    308.80766     7276 
462000000   -4992.4005   -1392.6097    6475.5727   -581.02172    4180.8125    310.39012     7277 
463000000    -4969.416   -1436.9358    6457.9131   -589.55313    4122.0334    309.54365     7279 
464000000   -4914.5731   -1315.2158    6530.6752   -584.55789    4183.9152    313.03132     7279 
465000000   -4831.6087   -1313.5269    6458.6251   -582.50618     4100.588    309.57778     7278 
466000000    -4884.703   -1386.7147    6423.9728   -719.71891    4217.7072    307.91681     7284 
467000000   -4990.6681   -1529.7468    6464.2537   -674.90848    4135.8298    309.84757     7281 
468000000    -4900.413   -1229.1029    6493.3137   -567.15712    4238.4673    311.24049     7276 
469000000   -4907.5683   -1342.7798     6469.464   -620.77768    4185.5662    310.09731     7276 
470000000    -4988.188   -1342.0886    6511.8746   -527.77672    4173.8761    312.13016     7276 
471000000   -4998.5243   -1348.4498    6322.5241   -598.63385    4248.7084    303.05413     7279 
472000000   -4908.0893   -1279.4716    6496.5855   -552.56031     4181.178    311.39732     7278 
473000000   -4937.3853   -1322.9667    6432.9167   -594.10388    4208.5225    308.34551     7278 
474000000   -4956.9351   -1381.5874    6452.5643   -542.13737     4117.485    309.28727     7276 
475000000   -4921.3053   -1420.4626    6264.4647   -607.88537     4108.728    300.27119     7279 
476000000   -4976.8744   -1421.7353    6459.5949   -547.28356    4102.4226    309.62427     7275 
477000000   -4918.9598   -1287.0401    6439.2384   -524.41204    4156.3317    308.64853     7276 
478000000   -4939.7354   -1340.8867    6564.5711   -571.43503    4170.2838    314.65603     7280 
479000000   -4943.7767   -1287.8889    6474.0277   -527.26834    4183.1562    310.31606     7279 
480000000   -4942.6748   -1247.9763    6425.5543    -562.4008    4257.0993    307.99262     7277 
481000000   -4946.5346   -1471.2819    6368.1953   -644.76896    4120.0217    305.24325     7280 
482000000   -5027.5136   -1478.5536    6445.1597    -594.2922    4143.2522    308.93235     7279 
483000000   -4958.8628   -1362.2609    6425.6864   -529.36255    4125.9644    307.99895     7277 
484000000   -4943.4556   -1419.8241    6424.4665   -608.32352    4131.9551    307.94047     7276 
485000000   -4921.3869   -1298.9782    6422.8291   -551.97364    4174.3823    307.86199     7280 
486000000   -5013.5082   -1468.8227    6415.2564    -613.4298    4158.1152    307.49901     7276 
487000000   -4985.6781   -1410.4274    6470.9745   -583.58878    4158.8395    310.16972     7278 
488000000   -4900.7981   -1241.1939    6570.6693   -576.13205    4235.7363    314.94833     7282 
489000000   -4989.0977   -1518.6332    6419.8842   -671.82202    4142.2865    307.72083     7282 
490000000   -4960.5555     -1449.21    6506.1528   -596.75055     4108.096     311.8559     7282 
491000000   -4957.5965   -1396.8633    6332.8037   -562.47179     4123.205    303.54685     7281 
492000000   -4979.7798   -1544.6127    6510.4014   -617.31314    4052.4802    312.05955     7279 
493000000   -4919.9596   -1475.7398    6512.1281   -625.22013      4069.44    312.14231     7280 
494000000   -4952.9001   -1320.7368    6496.4599   -593.21074    4225.3739     311.3913     7278 
495000000   -5056.4048   -1639.8154    6517.8647   -613.75073    4030.3401    312.41728     7279 
496000000   -5080.6661   -1480.2217    6520.8313   -606.98648    4207.4309    312.55948     7275 
497000000   -4954.1468   -1429.8807    6623.7858   -562.35929    4086.6254    317.49434     7278 
498000000   -4945.5263   -1462.4033    6474.9355   -596.60234    4079.7254    310.35958     7282 
499000000   -4974.6789   -1396.1417    6447.2628   -597.29753    4175.8347    309.03316     7280 
500000000   -4947.2887   -1433.8154    6407.2702   -599.76343    4113.2367    307.11621     7279 
Loop time of 26637.8 on 14 procs for 100000000 steps with 7000 atoms

Performance: 9730.531 ns/day, 0.002 hours/ns, 3754.063 timesteps/s
99.6% CPU use with 14 MPI tasks x no OpenMP threads

MPI task timing breakdown:
Section |  min time  |  avg time  |  max time  |%varavg| %total
---------------------------------------------------------------
Pair    | 5843.4     | 6907.2     | 7587.9     | 657.5 | 25.93
Bond    | 1071.2     | 1094.8     | 1197.3     |  91.2 |  4.11
Neigh   | 4297       | 4336.5     | 4381.7     |  35.5 | 16.28
Comm    | 6918.2     | 8077.5     | 10152      | 989.5 | 30.32
Output  | 0.55508    | 0.55532    | 0.55559    |   0.0 |  0.00
Modify  | 4329       | 4389.8     | 4544.3     |  76.7 | 16.48
Other   |            | 1831       |            |       |  6.88

Nlocal:    500 ave 537 max 451 min
Histogram: 1 0 1 1 2 3 1 3 1 1
Nghost:    790.786 ave 972 max 589 min
Histogram: 3 0 1 2 2 0 1 0 0 5
Neighs:    9581.86 ave 10929 max 8013 min
Histogram: 1 0 1 2 2 4 0 1 1 2

Total # of neighbors = 134146
Ave neighs/atom = 19.1637
Ave special neighs/atom = 7.43629
Neighbor list builds = 6159926
Dangerous builds = 0

write_restart final_state_${fName}.restart
write_restart final_state_Run6_S10N05_rlx.restart
write_data final_state_${fName}.DATA
write_data final_state_Run6_S10N05_rlx.DATA
Total wall time: 7:23:58
