
units           real
boundary p p p
atom_style      full

read_restart final_state_Relax_Es_10kT_Ens_0.5kT.restart
  restoring atom style full from restart
  orthogonal box = (-500 -500 -500) to (500 500 500)
  1 by 2 by 7 MPI processor grid
  restoring pair style lj/cut from restart
  restoring bond style hybrid from restart
  restoring angle style cosine from restart
  7000 atoms
  7283 bonds
  6600 angles
  3 = max # of 1-2 neighbors
  4 = max # of 1-3 neighbors
  8 = max # of 1-4 neighbors
  16 = max # of special neighbors
  special bonds CPU = 0.0235554 secs
  read_restart CPU = 0.188952 secs

change_box all x final -500.0 500.0 y final -500.0 500.0 z final -500.0 500.0
  orthogonal box = (-500 -500 -500) to (500 500 500)
  orthogonal box = (-500 -500 -500) to (500 500 500)
  orthogonal box = (-500 -500 -500) to (500 500 500)

neighbor 1.9 bin
neigh_modify every 1 delay 1 check yes

angle_style  cosine
angle_coeff   *  2  # K (energy unit)

bond_style 		 hybrid harmonic harmonic/shift/cut
bond_coeff   1   harmonic 3   10
bond_coeff   2   harmonic 3   10
bond_coeff   3   harmonic/shift/cut 5.922   11.22   12.72


pair_style lj/cut 25

pair_coeff  * * 0.296 10 25

special_bonds lj  0 1 1 angle yes
  3 = max # of 1-2 neighbors
  4 = max # of 1-3 neighbors
  8 = max # of 1-4 neighbors
  17064 = # of 1-3 neighbors before angle trim
  13200 = # of 1-3 neighbors after angle trim
  16 = max # of special neighbors
  special bonds CPU = 0.00197888 secs

variable t equal step
variable steps equal 100000000
variable dt_thermo equal 1000000
variable dt_movie equal 5000000
variable dt_restart equal 10000000

group rxnSites type 1 3
1000 atoms in group rxnSites

# fix ID group-ID(atom-types) bond/create Nevery itype jtype Rmin bondtype (prob values = fraction seed) (iparam maxbond newType)
fix bondc rxnSites bond/create/random 20 1 3 12.72 3 prob 1 ${seed} iparam 1 1 jparam 1 3
fix bondc rxnSites bond/create/random 20 1 3 12.72 3 prob 1 802389 iparam 1 1 jparam 1 3

# fix ID group-ID bond/break Nevery bondtype Rmax keyword values ...
fix bondbr rxnSites bond/break 20 3 12.72 prob 1 ${seed}
fix bondbr rxnSites bond/break 20 3 12.72 prob 1 802389

variable frmbnd equal f_bondc[2]
variable brkbnd equal f_bondbr[2]
fix saveBond all print ${dt_thermo} "$t ${frmbnd} ${brkbnd}" file BondData_${fName}.dat screen no
fix saveBond all print 1000000 "$t ${frmbnd} ${brkbnd}" file BondData_${fName}.dat screen no
fix saveBond all print 1000000 "$t ${frmbnd} ${brkbnd}" file BondData_Run7_S10N05_rlx.dat screen no

thermo_style    custom step epair pe ke ebond eangle temp bonds
thermo          ${dt_thermo}
thermo          1000000
fix saveThermo all print ${dt_thermo} "$t $(temp) $(ke) $(pe) $(epair) $(ebond) $(eangle) $(bonds)" file Thermo_${fName}.dat title "# Steps Temp KinEng PotEng Epair Ebond Eangle Bonds" screen no
fix saveThermo all print 1000000 "$t $(temp) $(ke) $(pe) $(epair) $(ebond) $(eangle) $(bonds)" file Thermo_${fName}.dat title "# Steps Temp KinEng PotEng Epair Ebond Eangle Bonds" screen no
fix saveThermo all print 1000000 "$t $(temp) $(ke) $(pe) $(epair) $(ebond) $(eangle) $(bonds)" file Thermo_Run7_S10N05_rlx.dat title "# Steps Temp KinEng PotEng Epair Ebond Eangle Bonds" screen no

############################ Langevin Dynamics ###############################
fix fxlan all langevin $T $T 500 ${seed}
fix fxlan all langevin 310 $T 500 ${seed}
fix fxlan all langevin 310 310 500 ${seed}
fix fxlan all langevin 310 310 500 802389
fix fxnve all nve

comm_style tiled
fix fxbal all balance 1000 1.1 rcb # load balance for spatially heterogeneous system

timestep 30

dump coor all custom ${dt_movie} traj_${fName}.dump id type mol mass x y z xu yu zu
dump coor all custom 5000000 traj_${fName}.dump id type mol mass x y z xu yu zu
dump coor all custom 5000000 traj_Run7_S10N05_rlx.dump id type mol mass x y z xu yu zu

restart ${dt_restart} ${fName}_tp_*.restart
restart 10000000 ${fName}_tp_*.restart
restart 10000000 Run7_S10N05_rlx_tp_*.restart
run ${steps}
run 100000000
Neighbor list info ...
  update every 1 steps, delay 1 steps, check yes
  max neighbors/atom: 2000, page size: 100000
  master list distance cutoff = 26.9
  ghost atom cutoff = 26.9
  binsize = 13.45, bins = 75 75 75
  2 neighbor lists, perpetual/occasional/extra = 1 1 0
  (1) pair lj/cut, perpetual
      attributes: half, newton on
      pair build: half/bin/newton
      stencil: half/bin/3d/newton
      bin: standard
  (2) fix bond/create/random, occasional, copy from (1)
      attributes: half, newton on
      pair build: copy
      stencil: none
      bin: none
Per MPI rank memory allocation (min/avg/max) = 10.32 | 10.75 | 11.78 Mbytes
Step E_pair PotEng KinEng E_bond E_angle Temp Bonds 
400000000   -4811.3255   -1250.4799    6427.2076   -619.69659    4180.5422    308.07186     7283 
401000000   -4972.0521   -1406.4048    6454.9412   -567.13257    4132.7799     309.4012     7281 
402000000   -5016.0297   -1487.1186     6468.471   -640.39325    4169.3043    310.04972     7283 
403000000   -4961.3226   -1396.9063    6463.6512   -568.10662    4132.5228    309.81869     7280 
404000000   -5029.3206   -1463.6429    6583.4902   -588.87411    4154.5518    315.56287     7281 
405000000   -4919.4027   -1367.5916    6508.0565   -597.08078    4148.8919    311.94715     7281 
406000000   -4973.3358   -1519.8856    6477.2333   -654.45091    4107.9012    310.46971     7282 
407000000   -4974.6604   -1400.9238    6417.2445   -557.72489    4131.4614     307.5943     7281 
408000000   -4897.1783   -1329.0027    6467.0802   -540.08699    4108.2626    309.98305     7280 
409000000   -4898.1306   -1449.3266    6611.0825   -670.71412    4119.5181    316.88544     7282 
410000000   -4945.4372   -1422.6353    6476.0318   -645.78119    4168.5831    310.41212     7285 
411000000   -4944.3335   -1340.5948    6492.2918   -596.75983    4200.4985    311.19151     7287 
412000000    -4946.285   -1461.3168    6534.7911   -668.53385    4153.5021     313.2286     7285 
413000000   -4867.3355    -1328.944    6522.2119   -575.66352    4114.0549    312.62565     7282 
414000000   -4920.8559    -1369.284    6295.3555    -674.9199    4226.4919    301.75187     7283 
415000000   -4998.4424   -1476.2576    6428.9601   -626.83133    4149.0162    308.15586     7283 
416000000   -4877.5233   -1389.6085     6474.582   -598.31728    4086.2321    310.34264     7282 
417000000    -4857.332    -1319.932    6504.8752   -642.38583    4179.7858    311.79466     7283 
418000000   -4990.7694   -1453.1147      6413.71   -612.82937     4150.484    307.42489     7284 
419000000   -4957.8843   -1374.0111     6496.301   -550.84323    4134.7164    311.38368     7284 
420000000   -4899.2527   -1361.5118    6389.3344   -608.16405    4145.9049     306.2565     7282 
421000000    -4910.012   -1317.8799    6467.6434   -596.46505    4188.5972    310.01005     7284 
422000000   -4992.7225   -1422.9921    6519.4283   -566.64231    4136.3727    312.49223     7282 
423000000   -4910.6407   -1370.8307    6609.9075   -635.98934    4175.7994    316.82912     7286 
424000000   -4925.9181   -1415.8779     6425.146   -617.63153    4127.6717    307.97304     7284 
425000000   -4932.7367   -1487.6452    6391.3936   -662.75365    4107.8451    306.35521     7286 
426000000   -4903.0748   -1360.1543    6434.2705    -619.7178    4162.6383     308.4104     7286 
427000000     -5082.54   -1554.8313    6412.4469   -595.95953    4123.6682    307.36435     7284 
428000000   -4923.7423   -1482.6846    6522.4808   -629.76751    4070.8253    312.63854     7282 
429000000   -4998.5701   -1503.6393    6546.1633   -577.69363    4072.6244     313.7737     7283 
430000000   -4923.0364   -1345.1273    6540.7086   -624.30221    4202.2113    313.51224     7282 
431000000   -4977.5739   -1466.4804    6501.5513   -650.27084    4161.3643    311.63534     7283 
432000000   -4920.6884   -1499.8637    6385.9043   -633.11995    4053.9447    306.09209     7282 
433000000   -5033.3182   -1559.5353    6475.4691   -648.85098    4122.6338    310.38515     7280 
434000000   -5090.1887   -1528.6522    6557.5302   -583.82267    4145.3591    314.31854     7280 
435000000   -4980.0142   -1503.1237    6394.3113   -568.54564    4045.4361    306.49506     7281 
436000000   -4900.5157   -1409.6603    6636.0997   -614.17025    4105.0256    318.08457     7280 
437000000   -4979.9783   -1548.9894    6457.1757   -635.08038    4066.0692    309.50831     7281 
438000000   -5065.7557   -1433.6405    6426.5525   -530.37646    4162.4917    308.04046     7277 
439000000   -4907.2182   -1353.8614     6412.241   -520.07176    4073.4286    307.35448     7277 
440000000   -4951.1962   -1362.4798     6557.988   -600.39207    4189.1085    314.34049     7275 
441000000   -4947.8022   -1491.5997    6526.8037   -653.43595    4109.6385    312.84575     7280 
442000000    -4837.411   -1342.9243    6489.8607   -576.37932     4070.866    311.07498     7279 
443000000   -4866.5127   -1231.9165    6537.3286   -516.05412    4150.6503    313.35023     7278 
444000000   -5027.6736   -1488.6749    6493.5184   -558.99592    4097.9946     311.2503     7278 
445000000    -4945.309   -1315.0865    6487.6741   -506.78403    4137.0065    310.97017     7274 
446000000   -5040.7994   -1573.9237    6489.5267   -671.39956    4138.2752    311.05897     7277 
447000000   -4949.2502    -1406.108    6322.8997   -599.94148    4143.0837    303.07213     7282 
448000000   -4981.5123    -1473.868    6479.6224   -571.75455    4079.3988    310.58423     7281 
449000000   -4957.2247   -1488.6323    6342.4579   -595.79823    4064.3907     304.0096     7282 
450000000   -4976.5782   -1542.6971    6454.3219   -567.07674    4000.9578    309.37152     7280 
451000000   -4990.0843   -1497.9417    6521.7828    -628.8796    4121.0222    312.60509     7278 
452000000   -4874.4774   -1332.7493    6397.6961   -573.98843    4115.7165     306.6573     7280 
453000000   -4964.8044   -1439.9333    6406.7328   -627.38947    4152.2605    307.09045     7279 
454000000   -4989.5257   -1433.5394    6552.9795   -595.92977     4151.916    314.10042     7279 
455000000   -4983.0479   -1462.8014    6490.9533   -601.02345      4121.27    311.12735     7282 
456000000   -5072.3345   -1584.3804    6546.6852   -610.90691     4098.861    313.79872     7281 
457000000   -5036.3248   -1568.0733    6384.3063   -646.49915    4114.7507    306.01549     7281 
458000000    -4940.029    -1398.254    6556.3045   -625.53786    4167.3128    314.25979     7282 
459000000   -5049.8387   -1582.0248     6435.994   -590.82853    4058.6425    308.49302     7284 
460000000    -5021.378   -1485.8479    6512.1709   -597.04812    4132.5783    312.14436     7281 
461000000   -4951.0005   -1368.5305    6450.7476   -549.05994    4131.5299    309.20019     7280 
462000000   -4926.9187   -1345.6585    6507.4498   -578.95524    4160.2155    311.91807     7282 
463000000   -5003.2788   -1420.7338    6433.5572   -548.13938    4130.6844    308.37621     7282 
464000000   -5000.9389   -1543.4122    6444.4226   -603.70491    4061.2316    308.89702     7280 
465000000   -5052.8179   -1532.5569    6518.2265   -584.78277    4105.0438    312.43462     7280 
466000000   -5008.7568   -1495.3982    6350.4329      -628.15    4141.5085    304.39186     7280 
467000000   -4930.1616   -1453.0128    6376.0473   -589.39551    4066.5443    305.61962     7281 
468000000   -5012.4039   -1481.6969    6496.7373   -603.25119    4133.9582    311.40459     7284 
469000000   -4993.9639   -1540.0631    6464.3839   -637.80906    4091.7099    309.85381     7286 
470000000   -4971.2422   -1545.4104    6443.4335   -714.91506    4140.7468    308.84961     7281 
471000000   -4859.6194   -1282.8595    6425.4963   -570.19742    4146.9574    307.98984     7281 
472000000    -4889.399   -1389.5699    6592.5142   -550.41666    4050.2458    315.99541     7279 
473000000   -4817.2194   -1281.6222    6619.3245   -637.70414    4173.3014     317.2805     7281 
474000000   -4920.0662   -1492.0574    6379.1986    -701.7855    4129.7943    305.77067     7282 
475000000   -4999.9396   -1499.9992    6485.7977   -600.87038    4100.8108    310.88023     7280 
476000000   -5010.3985   -1387.6866    6524.1396    -545.8037    4168.5156    312.71805     7277 
477000000   -4979.0795   -1445.9518    6493.7169   -599.34488    4132.4726    311.25981     7278 
478000000   -4970.7383   -1468.5171    6506.0332   -587.09385    4089.3151    311.85017     7275 
479000000   -4879.1257   -1358.4211    6458.6242   -603.11097    4123.8156    309.57774     7282 
480000000    -5031.224   -1448.8975    6515.3764    -556.9431    4139.2697    312.29801     7276 
481000000   -5005.8142   -1580.4889    6529.1944   -669.06789    4094.3932    312.96034     7282 
482000000   -4984.7598   -1380.5113    6535.9599   -572.90416    4177.1527    313.28463     7284 
483000000   -4978.3344   -1490.7069    6449.4744   -628.72138    4116.3488    309.13916     7285 
484000000   -4998.5464   -1449.4526    6554.7499   -589.99444    4139.0882    314.18528     7281 
485000000   -4822.2877    -1423.302    6476.7619   -689.19051    4088.1762    310.44712     7281 
486000000   -4899.7225   -1308.0458    6523.8404    -581.8243     4173.501    312.70371     7282 
487000000    -4969.962   -1426.0613    6543.8045   -636.47603    4180.3767    313.66064     7278 
488000000   -4941.1784   -1441.7715    6409.3535   -581.68497    4081.0918    307.21607     7286 
489000000    -4966.294   -1397.6548      6550.32   -588.87666    4157.5159    313.97294     7286 
490000000   -4988.7711    -1564.324    6559.3224   -685.42632    4109.8734    314.40445     7283 
491000000   -4964.3297   -1445.2106    6632.3361   -630.44223    4149.5613    317.90417     7279 
492000000   -4973.6916   -1375.6669    6382.6778   -509.37586    4107.4006    305.93744     7279 
493000000   -4896.8415   -1366.2147    6387.8924   -601.55512    4132.1819    306.18739     7280 
494000000   -4920.7408   -1410.1525    6416.6224   -591.04712    4101.6354    307.56449     7280 
495000000   -4925.2439   -1361.4011    6425.4895   -562.01535    4125.8581    307.98951     7282 
496000000   -4847.4882   -1345.6406    6553.8193   -564.78806    4066.6357    314.14067     7279 
497000000   -4875.3082   -1515.8242    6424.9834   -657.52511    4017.0091    307.96525     7280 
498000000   -4942.7682   -1478.7357    6425.4027   -602.65956    4066.6921    307.98535     7278 
499000000   -5029.7409   -1474.3294    6472.4575    -558.1441    4113.5556     310.2408     7282 
500000000   -5038.2998   -1590.4131     6341.692   -603.14906    4051.0358    303.97289     7281 
Loop time of 26724.7 on 14 procs for 100000000 steps with 7000 atoms

Performance: 9698.876 ns/day, 0.002 hours/ns, 3741.850 timesteps/s
99.6% CPU use with 14 MPI tasks x no OpenMP threads

MPI task timing breakdown:
Section |  min time  |  avg time  |  max time  |%varavg| %total
---------------------------------------------------------------
Pair    | 6641.6     | 7256.7     | 8361.9     | 573.9 | 27.15
Bond    | 1068.8     | 1146.7     | 1223.8     | 160.1 |  4.29
Neigh   | 4681.7     | 4709.4     | 4746.1     |  27.7 | 17.62
Comm    | 6299       | 7743.5     | 8951       | 762.9 | 28.97
Output  | 0.43474    | 0.43494    | 0.43513    |   0.0 |  0.00
Modify  | 4058.9     | 4195.7     | 4348.4     | 160.9 | 15.70
Other   |            | 1672       |            |       |  6.26

Nlocal:    500 ave 526 max 482 min
Histogram: 2 2 0 3 2 2 1 1 0 1
Nghost:    848.5 ave 1106 max 684 min
Histogram: 1 5 1 0 2 1 2 0 1 1
Neighs:    9712.07 ave 11237 max 7609 min
Histogram: 2 1 0 0 1 2 2 3 1 2

Total # of neighbors = 135969
Ave neighs/atom = 19.4241
Ave special neighs/atom = 7.44371
Neighbor list builds = 6160884
Dangerous builds = 0

write_restart final_state_${fName}.restart
write_restart final_state_Run7_S10N05_rlx.restart
write_data final_state_${fName}.DATA
write_data final_state_Run7_S10N05_rlx.DATA
Total wall time: 7:25:25
