
units           real
boundary p p p
atom_style      full

read_restart final_state_Relax_Es_10kT_Ens_0.5kT.restart
  restoring atom style full from restart
  orthogonal box = (-500 -500 -500) to (500 500 500)
  1 by 2 by 7 MPI processor grid
  restoring pair style lj/cut from restart
  restoring bond style hybrid from restart
  restoring angle style cosine from restart
  7000 atoms
  7283 bonds
  6600 angles
  3 = max # of 1-2 neighbors
  4 = max # of 1-3 neighbors
  8 = max # of 1-4 neighbors
  16 = max # of special neighbors
  special bonds CPU = 0.00223666 secs
  read_restart CPU = 0.0282037 secs

change_box all x final -500.0 500.0 y final -500.0 500.0 z final -500.0 500.0
  orthogonal box = (-500 -500 -500) to (500 500 500)
  orthogonal box = (-500 -500 -500) to (500 500 500)
  orthogonal box = (-500 -500 -500) to (500 500 500)

neighbor 1.9 bin
neigh_modify every 1 delay 1 check yes

angle_style  cosine
angle_coeff   *  2  # K (energy unit)

bond_style 		 hybrid harmonic harmonic/shift/cut
bond_coeff   1   harmonic 3   10
bond_coeff   2   harmonic 3   10
bond_coeff   3   harmonic/shift/cut 5.922   11.22   12.72


pair_style lj/cut 25

pair_coeff  * * 0.296 10 25

special_bonds lj  0 1 1 angle yes
  3 = max # of 1-2 neighbors
  4 = max # of 1-3 neighbors
  8 = max # of 1-4 neighbors
  17064 = # of 1-3 neighbors before angle trim
  13200 = # of 1-3 neighbors after angle trim
  16 = max # of special neighbors
  special bonds CPU = 0.00197541 secs

variable t equal step
variable steps equal 100000000
variable dt_thermo equal 1000000
variable dt_movie equal 5000000
variable dt_restart equal 10000000

group rxnSites type 1 3
1000 atoms in group rxnSites

# fix ID group-ID(atom-types) bond/create Nevery itype jtype Rmin bondtype (prob values = fraction seed) (iparam maxbond newType)
fix bondc rxnSites bond/create/random 20 1 3 12.72 3 prob 1 ${seed} iparam 1 1 jparam 1 3
fix bondc rxnSites bond/create/random 20 1 3 12.72 3 prob 1 986958 iparam 1 1 jparam 1 3

# fix ID group-ID bond/break Nevery bondtype Rmax keyword values ...
fix bondbr rxnSites bond/break 20 3 12.72 prob 1 ${seed}
fix bondbr rxnSites bond/break 20 3 12.72 prob 1 986958

variable frmbnd equal f_bondc[2]
variable brkbnd equal f_bondbr[2]
fix saveBond all print ${dt_thermo} "$t ${frmbnd} ${brkbnd}" file BondData_${fName}.dat screen no
fix saveBond all print 1000000 "$t ${frmbnd} ${brkbnd}" file BondData_${fName}.dat screen no
fix saveBond all print 1000000 "$t ${frmbnd} ${brkbnd}" file BondData_Run8_S10N05_rlx.dat screen no

thermo_style    custom step epair pe ke ebond eangle temp bonds
thermo          ${dt_thermo}
thermo          1000000
fix saveThermo all print ${dt_thermo} "$t $(temp) $(ke) $(pe) $(epair) $(ebond) $(eangle) $(bonds)" file Thermo_${fName}.dat title "# Steps Temp KinEng PotEng Epair Ebond Eangle Bonds" screen no
fix saveThermo all print 1000000 "$t $(temp) $(ke) $(pe) $(epair) $(ebond) $(eangle) $(bonds)" file Thermo_${fName}.dat title "# Steps Temp KinEng PotEng Epair Ebond Eangle Bonds" screen no
fix saveThermo all print 1000000 "$t $(temp) $(ke) $(pe) $(epair) $(ebond) $(eangle) $(bonds)" file Thermo_Run8_S10N05_rlx.dat title "# Steps Temp KinEng PotEng Epair Ebond Eangle Bonds" screen no

############################ Langevin Dynamics ###############################
fix fxlan all langevin $T $T 500 ${seed}
fix fxlan all langevin 310 $T 500 ${seed}
fix fxlan all langevin 310 310 500 ${seed}
fix fxlan all langevin 310 310 500 986958
fix fxnve all nve

comm_style tiled
fix fxbal all balance 1000 1.1 rcb # load balance for spatially heterogeneous system

timestep 30

dump coor all custom ${dt_movie} traj_${fName}.dump id type mol mass x y z xu yu zu
dump coor all custom 5000000 traj_${fName}.dump id type mol mass x y z xu yu zu
dump coor all custom 5000000 traj_Run8_S10N05_rlx.dump id type mol mass x y z xu yu zu

restart ${dt_restart} ${fName}_tp_*.restart
restart 10000000 ${fName}_tp_*.restart
restart 10000000 Run8_S10N05_rlx_tp_*.restart
run ${steps}
run 100000000
Neighbor list info ...
  update every 1 steps, delay 1 steps, check yes
  max neighbors/atom: 2000, page size: 100000
  master list distance cutoff = 26.9
  ghost atom cutoff = 26.9
  binsize = 13.45, bins = 75 75 75
  2 neighbor lists, perpetual/occasional/extra = 1 1 0
  (1) pair lj/cut, perpetual
      attributes: half, newton on
      pair build: half/bin/newton
      stencil: half/bin/3d/newton
      bin: standard
  (2) fix bond/create/random, occasional, copy from (1)
      attributes: half, newton on
      pair build: copy
      stencil: none
      bin: none
Per MPI rank memory allocation (min/avg/max) = 10.32 | 10.75 | 11.78 Mbytes
Step E_pair PotEng KinEng E_bond E_angle Temp Bonds 
400000000   -4811.3255   -1250.4799    6427.2076   -619.69659    4180.5422    308.07186     7283 
401000000   -5003.3248   -1351.5746    6370.2631   -531.93592    4183.6861    305.34237     7282 
402000000   -4953.1516   -1508.7227    6442.8765   -592.38822    4036.8171    308.82291     7282 
403000000   -5042.9186     -1565.63    6450.6195    -648.2701    4125.5587    309.19405     7282 
404000000   -4836.6636   -1343.0726    6351.4729   -623.05248    4116.6435    304.44171     7284 
405000000   -4936.0794   -1400.7086    6485.6176   -614.11518    4149.4859     310.8716     7282 
406000000   -4977.4492    -1439.224    6463.0253   -572.93176    4111.1569    309.78869     7285 
407000000   -4902.6707   -1414.1169    6411.3227   -590.00005    4078.5538    307.31046     7282 
408000000   -4842.2579   -1259.7589    6437.6533   -573.43559    4155.9346    308.57255     7282 
409000000   -4816.1958   -1300.8886    6409.7096   -565.49925    4080.8064    307.23314     7278 
410000000    -4894.298   -1239.9095    6538.2454   -543.24631    4197.6349    313.39418     7276 
411000000   -4878.0648   -1337.0623    6517.1335   -574.02483    4115.0273    312.38223     7276 
412000000    -4877.244   -1313.4925    6415.2534   -641.82357    4205.5751    307.49887     7279 
413000000   -4963.3713   -1300.6988    6509.3217   -558.86136    4221.5339    312.00779     7282 
414000000   -4784.3496   -1323.5496    6459.6201     -597.355     4058.155    309.62547     7279 
415000000   -4914.0343   -1397.1349    6461.4496   -613.47984    4130.3792    309.71316     7282 
416000000   -4878.0389   -1247.2588     6385.477   -564.59161    4195.3717    306.07161     7280 
417000000   -4865.6759    -1299.055    6432.9216    -562.2634    4128.8843    308.34575     7276 
418000000   -4851.6346   -1260.2138    6477.1899   -608.61225     4200.033    310.46764     7280 
419000000   -4815.7012   -1241.3257    6479.8609   -631.19686    4205.5723    310.59566     7286 
420000000    -4859.936   -1393.5491    6415.0999    -643.6591     4110.046    307.49151     7286 
421000000    -4902.906   -1433.0092    6435.6283   -670.59266    4140.4894    308.47549     7287 
422000000   -4815.0505   -1356.7797     6473.606   -620.22611    4078.4969    310.29585     7286 
423000000   -4952.6149   -1409.9051    6495.0955   -663.12704    4205.8368     311.3259     7281 
424000000    -4979.636   -1409.9351    6456.9738   -649.93714    4219.6381    309.49863     7285 
425000000    -4878.185   -1317.9754    6381.0693   -637.03077    4197.2404    305.86034     7283 
426000000   -4836.3931   -1279.3815     6457.365   -561.59354    4118.6052    309.51738     7283 
427000000   -4879.8989    -1316.518     6497.965    -571.1011    4134.4819    311.46344     7279 
428000000     -4872.21   -1380.5856    6519.2011   -625.73095    4117.3553    312.48134     7286 
429000000   -4945.1693   -1370.6302    6413.2307   -574.86247    4149.4016    307.40192     7282 
430000000   -4947.2767   -1412.3122      6520.52   -650.05121    4185.0157    312.54455     7285 
431000000   -4916.7066   -1493.5032    6497.4983   -711.34158     4134.545    311.44107     7285 
432000000   -4825.9462   -1347.1957    6521.6455   -610.88536    4089.6358     312.5985     7282 
433000000   -4793.4541   -1282.7909    6481.4733   -611.02949    4121.6927    310.67295     7284 
434000000   -4827.4097    -1320.698    6367.6105   -614.50738    4121.2191    305.21523     7282 
435000000   -4886.0094   -1256.7991    6487.8176   -597.67357    4226.8838    310.97705     7280 
436000000   -4923.6465   -1399.1373    6483.5437   -608.82962    4133.3387    310.77219     7283 
437000000   -4910.3644   -1388.1975    6459.6556   -630.14918    4152.3161    309.62718     7280 
438000000   -4832.4266   -1287.5395    6425.3076   -628.19465    4173.0818    307.98079     7282 
439000000   -4798.0534   -1244.7114    6518.7825   -618.07614    4171.4182    312.46127     7279 
440000000   -4834.3165   -1237.1819    6570.0863   -563.99466    4161.1293    314.92039     7279 
441000000    -4876.084   -1240.3626    6374.8626   -548.01533    4183.7367    305.56284     7277 
442000000   -4903.7582   -1307.0089    6474.0837   -587.19854    4183.9479    310.31875     7280 
443000000   -4916.7099   -1414.4463     6502.295   -615.23269    4117.4964    311.67099     7278 
444000000   -4898.9581   -1370.6482    6557.8765   -631.08942    4159.3993    314.33514     7279 
445000000   -4902.4486    -1404.345     6453.339    -619.8446    4117.9482     309.3244     7281 
446000000    -4902.177    -1464.594    6427.9075   -693.21441    4130.7974    308.10541     7281 
447000000   -4897.3282   -1317.6223    6674.1126   -627.78589    4207.4918    319.90662     7282 
448000000   -4888.8668   -1319.4254    6429.6052   -559.10054     4128.542    308.18678     7281 
449000000   -4926.6765   -1359.2437     6444.083   -572.43899    4139.8718    308.88074     7281 
450000000   -4876.2964   -1292.9984    6421.4058   -560.63888    4143.9369    307.79377     7281 
451000000   -4878.7312   -1240.0051    6460.5186   -517.40562    4156.1317    309.66854     7279 
452000000   -4970.3328   -1386.2783    6416.6266   -615.00433    4199.0588    307.56469     7280 
453000000   -4920.1896   -1368.8645    6456.4395   -583.87698    4135.2021    309.47302     7279 
454000000   -4911.0871   -1348.0338    6549.0389   -597.33316    4160.3865    313.91153     7277 
455000000   -4861.0734   -1327.5732    6418.4457   -560.06039    4093.5606    307.65188     7276 
456000000   -4926.3131   -1341.2188    6428.6691    -593.4038    4178.4982    308.14191     7279 
457000000   -4885.5867   -1363.6126     6419.957   -621.63553    4143.6096    307.72432     7278 
458000000    -4908.713    -1275.745    6413.7017    -544.7854    4177.7534    307.42449     7281 
459000000   -4962.2764   -1424.1847    6375.4954    -627.2242    4165.3159    305.59317     7279 
460000000     -4989.74   -1394.5798    6446.9156   -552.93622    4148.0964    309.01652     7278 
461000000   -4951.2266   -1481.6599    6410.9096   -632.87875    4102.4454    307.29066     7276 
462000000   -4868.5635   -1431.8489     6483.407   -652.20426    4088.9189    310.76564     7279 
463000000   -4878.3618   -1378.5317    6357.4681   -604.36137    4104.1914    304.72907     7281 
464000000   -4870.9398   -1281.7539    6489.9484   -552.10053    4141.2864    311.07918     7276 
465000000   -4828.9926    -1428.814     6528.468   -634.70813    4034.8867    312.92552     7280 
466000000   -4994.6339   -1489.5144    6444.7376   -621.40189    4126.5215    308.91212     7278 
467000000   -4911.6928   -1277.4654      6493.83   -531.97016    4166.1975    311.26523     7280 
468000000   -4870.4713   -1375.1608    6554.2656   -590.21431    4085.5249    314.16206     7281 
469000000   -4766.8435   -1275.3822     6399.073   -616.90752    4108.3688     306.7233     7280 
470000000   -4973.8511   -1384.3314    6438.5251   -561.40097    4150.9207    308.61434     7282 
471000000   -4835.9263    -1271.002    6515.4128   -564.00206    4128.9264    312.29976     7276 
472000000     -4856.64   -1272.2892    6408.3983    -560.8843    4145.2351    307.17028     7273 
473000000   -4807.4566   -1218.8384    6407.5097   -537.20061    4125.8188    307.12769     7272 
474000000   -4923.0973   -1348.9809    6361.8578   -618.25068    4192.3671    304.93949     7276 
475000000   -4904.2707   -1334.8027    6424.4397    -553.0063    4122.4743    307.93919     7276 
476000000   -4902.4207    -1213.009    6425.1268   -534.47948    4223.8912    307.97213     7273 
477000000   -4807.1059   -1234.6494    6482.8949   -498.80636    4071.2628    310.74109     7277 
478000000   -4820.1265   -1346.6402    6414.4146    -594.8046    4068.2908    307.45866     7275 
479000000    -4999.681   -1459.0879    6310.2033   -565.32745    4105.9205    302.46356     7278 
480000000   -5109.9007   -1575.0371    6421.4037   -553.53022    4088.3938    307.79367     7275 
481000000   -4952.2121   -1332.8429    6460.8568   -521.00225    4140.3714    309.68475     7276 
482000000   -4936.2291   -1418.7072    6582.1829   -541.40876    4058.9306    315.50021     7279 
483000000   -4921.2456   -1307.0843    6333.6459    -622.2931    4236.4544    303.58722     7276 
484000000   -4876.0298   -1316.6563    6507.2532    -592.2825     4151.656    311.90864     7275 
485000000   -4979.5951   -1432.4306     6344.025   -630.70688    4177.8713    304.08471     7279 
486000000   -4930.6792   -1396.6053     6539.183    -593.6481     4127.722    313.43912     7279 
487000000   -4985.2302   -1462.7425    6508.4695   -514.70446    4037.1921    311.96694     7278 
488000000   -4983.8204   -1469.4998    6514.3007   -637.23298    4151.5535    312.24645     7280 
489000000   -5003.7654   -1413.9276     6574.296   -576.28873    4166.1265    315.12217     7281 
490000000   -4924.1695   -1381.7289    6531.6442   -572.88766    4115.3282    313.07777     7279 
491000000   -4806.6415   -1317.0638    6472.2136   -597.88642    4087.4642    310.22911     7279 
492000000   -5061.9442    -1434.738    6296.4252   -528.03289    4155.2391    301.80314     7277 
493000000    -4879.339   -1284.8611    6453.7278   -515.04641    4109.5244    309.34304     7273 
494000000   -4977.9903   -1477.6986    6531.2908   -552.07326    4052.3649    313.06082     7278 
495000000    -4912.889   -1345.1799    6494.5663   -585.08563    4152.7947    311.30053     7276 
496000000   -5013.1454   -1454.5364     6382.803   -615.69919    4174.3082    305.94344     7276 
497000000   -4914.7441    -1388.442    6531.7308   -636.35121    4162.6534    313.08192     7277 
498000000   -4955.0356   -1440.3893    6528.8896   -574.25699    4088.9034    312.94573     7277 
499000000   -4794.9007   -1237.0442    6377.8268   -538.98836    4096.8449    305.70492     7272 
500000000    -4980.945    -1600.057      6506.05   -632.16216    4013.0502    311.85097     7274 
Loop time of 25503.2 on 14 procs for 100000000 steps with 7000 atoms

Performance: 10163.419 ns/day, 0.002 hours/ns, 3921.072 timesteps/s
99.5% CPU use with 14 MPI tasks x no OpenMP threads

MPI task timing breakdown:
Section |  min time  |  avg time  |  max time  |%varavg| %total
---------------------------------------------------------------
Pair    | 6488       | 7479.4     | 8414.4     | 668.9 | 29.33
Bond    | 1134.6     | 1194.4     | 1235       | 115.0 |  4.68
Neigh   | 4710.2     | 4729.4     | 4760.8     |  21.9 | 18.54
Comm    | 6201.7     | 7109.9     | 8241.4     | 731.8 | 27.88
Output  | 0.50106    | 0.50122    | 0.50138    |   0.0 |  0.00
Modify  | 3957.2     | 4070.6     | 4145.2     | 123.8 | 15.96
Other   |            | 919        |            |       |  3.60

Nlocal:    500 ave 512 max 477 min
Histogram: 1 1 0 0 2 2 1 0 3 4
Nghost:    823.5 ave 1052 max 537 min
Histogram: 1 0 2 1 3 1 0 3 1 2
Neighs:    9584.57 ave 10944 max 8042 min
Histogram: 2 0 0 1 2 3 2 2 0 2

Total # of neighbors = 134184
Ave neighs/atom = 19.1691
Ave special neighs/atom = 7.41771
Neighbor list builds = 6161007
Dangerous builds = 0

write_restart final_state_${fName}.restart
write_restart final_state_Run8_S10N05_rlx.restart
write_data final_state_${fName}.DATA
write_data final_state_Run8_S10N05_rlx.DATA
Total wall time: 7:05:03
