
units           real
boundary p p p
atom_style      full

read_restart final_state_Relax_Es_10kT_Ens_0.5kT.restart
  restoring atom style full from restart
  orthogonal box = (-500 -500 -500) to (500 500 500)
  1 by 2 by 7 MPI processor grid
  restoring pair style lj/cut from restart
  restoring bond style hybrid from restart
  restoring angle style cosine from restart
  7000 atoms
  7283 bonds
  6600 angles
  3 = max # of 1-2 neighbors
  4 = max # of 1-3 neighbors
  8 = max # of 1-4 neighbors
  16 = max # of special neighbors
  special bonds CPU = 0.0397759 secs
  read_restart CPU = 0.423648 secs

change_box all x final -500.0 500.0 y final -500.0 500.0 z final -500.0 500.0
  orthogonal box = (-500 -500 -500) to (500 500 500)
  orthogonal box = (-500 -500 -500) to (500 500 500)
  orthogonal box = (-500 -500 -500) to (500 500 500)

neighbor 1.9 bin
neigh_modify every 1 delay 1 check yes

angle_style  cosine
angle_coeff   *  2  # K (energy unit)

bond_style 		 hybrid harmonic harmonic/shift/cut
bond_coeff   1   harmonic 3   10
bond_coeff   2   harmonic 3   10
bond_coeff   3   harmonic/shift/cut 5.922   11.22   12.72


pair_style lj/cut 25

pair_coeff  * * 0.296 10 25

special_bonds lj  0 1 1 angle yes
  3 = max # of 1-2 neighbors
  4 = max # of 1-3 neighbors
  8 = max # of 1-4 neighbors
  17064 = # of 1-3 neighbors before angle trim
  13200 = # of 1-3 neighbors after angle trim
  16 = max # of special neighbors
  special bonds CPU = 0.00248247 secs

variable t equal step
variable steps equal 100000000
variable dt_thermo equal 1000000
variable dt_movie equal 5000000
variable dt_restart equal 10000000

group rxnSites type 1 3
1000 atoms in group rxnSites

# fix ID group-ID(atom-types) bond/create Nevery itype jtype Rmin bondtype (prob values = fraction seed) (iparam maxbond newType)
fix bondc rxnSites bond/create/random 20 1 3 12.72 3 prob 1 ${seed} iparam 1 1 jparam 1 3
fix bondc rxnSites bond/create/random 20 1 3 12.72 3 prob 1 887402 iparam 1 1 jparam 1 3

# fix ID group-ID bond/break Nevery bondtype Rmax keyword values ...
fix bondbr rxnSites bond/break 20 3 12.72 prob 1 ${seed}
fix bondbr rxnSites bond/break 20 3 12.72 prob 1 887402

variable frmbnd equal f_bondc[2]
variable brkbnd equal f_bondbr[2]
fix saveBond all print ${dt_thermo} "$t ${frmbnd} ${brkbnd}" file BondData_${fName}.dat screen no
fix saveBond all print 1000000 "$t ${frmbnd} ${brkbnd}" file BondData_${fName}.dat screen no
fix saveBond all print 1000000 "$t ${frmbnd} ${brkbnd}" file BondData_Run9_S10N05_rlx.dat screen no

thermo_style    custom step epair pe ke ebond eangle temp bonds
thermo          ${dt_thermo}
thermo          1000000
fix saveThermo all print ${dt_thermo} "$t $(temp) $(ke) $(pe) $(epair) $(ebond) $(eangle) $(bonds)" file Thermo_${fName}.dat title "# Steps Temp KinEng PotEng Epair Ebond Eangle Bonds" screen no
fix saveThermo all print 1000000 "$t $(temp) $(ke) $(pe) $(epair) $(ebond) $(eangle) $(bonds)" file Thermo_${fName}.dat title "# Steps Temp KinEng PotEng Epair Ebond Eangle Bonds" screen no
fix saveThermo all print 1000000 "$t $(temp) $(ke) $(pe) $(epair) $(ebond) $(eangle) $(bonds)" file Thermo_Run9_S10N05_rlx.dat title "# Steps Temp KinEng PotEng Epair Ebond Eangle Bonds" screen no

############################ Langevin Dynamics ###############################
fix fxlan all langevin $T $T 500 ${seed}
fix fxlan all langevin 310 $T 500 ${seed}
fix fxlan all langevin 310 310 500 ${seed}
fix fxlan all langevin 310 310 500 887402
fix fxnve all nve

comm_style tiled
fix fxbal all balance 1000 1.1 rcb # load balance for spatially heterogeneous system

timestep 30

dump coor all custom ${dt_movie} traj_${fName}.dump id type mol mass x y z xu yu zu
dump coor all custom 5000000 traj_${fName}.dump id type mol mass x y z xu yu zu
dump coor all custom 5000000 traj_Run9_S10N05_rlx.dump id type mol mass x y z xu yu zu

restart ${dt_restart} ${fName}_tp_*.restart
restart 10000000 ${fName}_tp_*.restart
restart 10000000 Run9_S10N05_rlx_tp_*.restart
run ${steps}
run 100000000
Neighbor list info ...
  update every 1 steps, delay 1 steps, check yes
  max neighbors/atom: 2000, page size: 100000
  master list distance cutoff = 26.9
  ghost atom cutoff = 26.9
  binsize = 13.45, bins = 75 75 75
  2 neighbor lists, perpetual/occasional/extra = 1 1 0
  (1) pair lj/cut, perpetual
      attributes: half, newton on
      pair build: half/bin/newton
      stencil: half/bin/3d/newton
      bin: standard
  (2) fix bond/create/random, occasional, copy from (1)
      attributes: half, newton on
      pair build: copy
      stencil: none
      bin: none
Per MPI rank memory allocation (min/avg/max) = 10.32 | 10.75 | 11.78 Mbytes
Step E_pair PotEng KinEng E_bond E_angle Temp Bonds 
400000000   -4811.3255   -1250.4799    6427.2076   -619.69659    4180.5422    308.07186     7283 
401000000   -4835.4831   -1253.1763     6481.958   -606.01774    4188.3246    310.69618     7282 
402000000   -4935.8618   -1431.4242    6382.4835   -577.68686    4082.1245    305.92813     7284 
403000000   -4909.7103   -1333.3625     6445.138   -611.78672    4188.1345    308.93131     7283 
404000000   -4820.3495    -1308.803    6493.6931   -610.03192    4121.5784    311.25868     7279 
405000000   -4947.1556   -1366.8089     6469.569   -576.50582    4156.8525    310.10235     7282 
406000000   -4963.0426   -1419.7891     6410.298   -626.44258     4169.696    307.26134     7284 
407000000   -4916.9681   -1297.3228    6430.6911   -559.45405    4179.0993    308.23883     7282 
408000000   -4972.0426   -1405.3464    6411.9685   -570.94004    4137.6362    307.34141     7281 
409000000   -4921.5316   -1363.0325    6584.8443   -596.28452    4154.7835    315.62777     7280 
410000000   -4810.8537   -1240.1301    6489.1834   -617.22863    4187.9523    311.04251     7280 
411000000   -4923.4277   -1377.6113    6420.6868   -632.97234    4178.7887     307.7593     7281 
412000000   -4890.4471   -1280.3233     6430.378   -576.22306    4186.3469    308.22382     7285 
413000000   -4840.3951   -1177.7033    6480.0022   -562.83777    4225.5296    310.60244     7284 
414000000   -4844.9879    -1247.977    6404.1587   -557.96068    4154.9716    306.96707     7279 
415000000   -4868.5449   -1333.8198    6383.3613   -600.55545    4135.2806     305.9702     7282 
416000000   -4892.6532   -1369.1364    6439.4201    -547.7998    4071.3166    308.65723     7282 
417000000   -4841.6565   -1310.8153     6462.359   -564.28525    4095.1265    309.75675     7282 
418000000   -4892.3183   -1268.6118    6492.9971    -543.7958    4167.5023    311.22531     7281 
419000000   -4888.6726   -1342.5065     6435.249   -575.57944    4121.7455    308.45731     7282 
420000000   -4892.1838   -1328.3006    6386.3618   -595.54265    4159.4259    306.11402     7278 
421000000   -4941.8376    -1380.374    6458.7689   -574.31505    4135.7786    309.58467     7279 
422000000   -5034.7667   -1520.1219    6525.9184   -636.42763    4151.0724    312.80331     7284 
423000000    -4907.666   -1354.2373    6638.0903   -571.88638    4125.3151    318.17999     7281 
424000000   -4981.1597   -1523.1702    6429.3689   -691.93303    4149.9225    308.17546     7284 
425000000   -5053.3272   -1526.1306    6442.4979   -629.89613    4157.0927    308.80477     7283 
426000000   -4951.3979   -1449.6509    6608.6367   -616.55925    4118.3062     316.7682     7282 
427000000   -4892.1123   -1326.4182    6457.4881   -589.02193     4154.716    309.52328     7282 
428000000   -4961.8266    -1308.518    6372.7694   -595.59939     4248.908     305.4625     7284 
429000000   -4971.5768   -1408.9704    6386.2145   -593.29477    4155.9012    306.10696     7284 
430000000   -5002.3224    -1479.607    6386.2783   -632.04717    4154.7626    306.11002     7287 
431000000   -4886.4699    -1339.321    6476.2878   -579.28956    4126.4385     310.4244     7283 
432000000   -4926.7743   -1528.0479    6495.6706   -721.00332    4119.7298    311.35346     7282 
433000000   -5007.7336   -1457.2448    6480.1068   -596.68741    4147.1762    310.60745     7281 
434000000   -4956.1649   -1455.7146    6442.3899   -607.60643    4108.0567    308.79958     7279 
435000000   -4987.5422   -1532.0862    6486.0515   -643.70008     4099.156    310.89239     7286 
436000000   -4913.8271   -1353.8206    6548.0507   -553.26125    4113.2677    313.86417     7281 
437000000   -4949.4472   -1390.9055    6575.4338   -544.72342    4103.2652    315.17671     7279 
438000000   -5026.6533    -1536.965    6520.5668   -620.84592    4110.5342     312.5468     7281 
439000000   -4987.1786   -1465.9191     6506.845   -625.78262    4147.0422    311.88908     7284 
440000000   -4911.6921   -1389.7074    6473.4952    -598.6444    4120.6291    310.29054     7283 
441000000   -5033.1221   -1436.0524    6386.4337   -565.68998    4162.7597    306.11747     7279 
442000000   -4971.4224   -1430.5848    6437.6813   -584.70079    4125.5384    308.57389     7280 
443000000   -5017.3698   -1551.0462    6442.7563   -621.09756    4087.4211    308.81715     7280 
444000000   -5002.7557   -1480.1908    6426.2207   -565.75691    4088.3218    308.02456     7285 
445000000   -4909.9204   -1501.4459    6530.6979   -639.76349     4048.238     313.0324     7282 
446000000   -5017.3269    -1477.966    6463.3123   -596.21217    4135.5731    309.80245     7281 
447000000   -4995.8161   -1438.2558    6483.9375   -636.78052    4194.3408    310.79107     7282 
448000000   -5030.3047   -1459.8885    6398.1357   -602.52198    4172.9382    306.67837     7282 
449000000   -4930.1726   -1456.5036    6441.4097   -630.88255    4104.5515     308.7526     7282 
450000000   -4867.9796   -1340.4403    6478.0124   -614.93387    4142.4732    310.50706     7281 
451000000   -5038.2858   -1478.3181    6510.9698   -577.34546    4137.3131    312.08679     7286 
452000000     -5015.05   -1473.2639    6438.4797   -596.15316    4137.9392    308.61216     7286 
453000000   -5024.7311   -1403.8928    6426.6511   -536.87323    4157.7115    308.04519     7282 
454000000   -4828.2935   -1332.4586    6405.2251   -625.06428    4120.8991    307.01819     7285 
455000000   -4915.9309   -1437.6605    6435.5503   -639.30474    4117.5751    308.47175     7281 
456000000   -4953.3186   -1459.2834    6420.6907   -620.15486    4114.1901    307.75949     7282 
457000000   -5015.4255    -1438.393    6400.4793   -561.52578    4138.5583    306.79071     7278 
458000000   -4930.4859   -1338.1722     6487.874   -584.86012    4177.1738    310.97975     7282 
459000000   -4862.4736   -1394.0314    6408.8217   -638.50811    4106.9503    307.19058     7280 
460000000   -4841.4798   -1290.7243     6505.419   -591.76199    4142.5175    311.82072     7279 
461000000   -4895.1117   -1342.5845    6407.2113   -617.02959    4169.5568    307.11339     7282 
462000000   -4910.8454   -1341.9714    6493.8226   -579.70414    4148.5782    311.26488     7285 
463000000   -4926.3431   -1378.8389    6394.7383   -586.96063    4134.4648    306.51553     7284 
464000000    -4932.178   -1439.5841    6403.8567    -630.8541    4123.4481    306.95259     7284 
465000000   -5008.2376   -1528.2616    6529.2624   -593.82814    4073.8042     312.9636     7281 
466000000   -4873.6247   -1364.3241    6516.6118   -564.55826    4073.8589    312.35723     7274 
467000000   -5037.8569   -1529.7071    6554.1802   -598.32569    4106.4755    314.15797     7279 
468000000   -4930.4105   -1382.0916    6389.2011   -609.00614     4157.325    306.25011     7283 
469000000   -4994.3043    -1551.529    6391.9282    -596.4518    4039.2272    306.38083     7284 
470000000   -4970.8987   -1528.5473    6369.5576   -647.78132    4090.1328    305.30855     7282 
471000000   -4857.7699   -1174.1814    6525.0838   -541.87773    4225.4662    312.76331     7282 
472000000   -4823.1677   -1342.6902    6513.9274   -599.98721    4080.4647    312.22855     7277 
473000000   -4866.8971   -1320.4765    6442.3736    -541.3677    4087.7882    308.79881     7285 
474000000   -5001.0286   -1423.8982    6454.4551   -555.22972    4132.3601     309.3779     7283 
475000000   -4942.7267   -1548.7184    6425.1334   -660.30087    4054.3092    307.97244     7285 
476000000   -5031.5412   -1359.2343    6571.4265    -504.1907    4176.4976    314.98463     7282 
477000000   -5119.5342   -1689.6886    6494.3931    -623.8879    4053.7336    311.29223     7284 
478000000   -5050.9073   -1598.8918    6464.2328   -646.04074    4098.0563    309.84657     7285 
479000000   -4990.1734   -1457.1379    6476.8501   -554.11885    4087.1544    310.45135     7281 
480000000   -4951.3723   -1384.3458    6503.3356   -644.44535    4211.4718    311.72086     7283 
481000000   -4957.9354   -1455.0547    6511.4193   -625.06934      4127.95    312.10833     7288 
482000000   -4993.3622   -1557.8844    6492.6028   -676.44675    4111.9246    311.20641     7285 
483000000   -4961.0509   -1519.2974    6446.7093   -591.94274    4033.6962    309.00662     7281 
484000000   -4834.6289   -1283.6548    6479.1438    -619.1155    4170.0896    310.56129     7282 
485000000   -4902.4997   -1267.7423    6477.3435   -541.22705    4175.9845      310.475     7285 
486000000   -4811.0736   -1432.8303    6476.2357   -647.68732    4025.9306     310.4219     7281 
487000000    -4961.324   -1425.8782    6389.5543   -595.02353    4130.4692    306.26705     7284 
488000000   -4940.0293   -1317.5543    6427.4657   -488.44252    4110.9174    308.08423     7281 
489000000   -5010.1162   -1400.3364    6391.2071   -537.75639    4147.5362    306.34627     7280 
490000000   -4919.0846   -1431.9222    6580.5838   -625.16172    4112.3241    315.42356     7282 
491000000   -4874.7367   -1353.6385    6401.4931   -611.48366    4132.5819     306.8393     7284 
492000000   -4943.8391   -1427.2744     6417.635   -580.46046    4097.0251    307.61302     7280 
493000000   -4876.6179   -1391.7596    6319.8945   -659.97385    4144.8322    302.92808     7278 
494000000   -4850.6152   -1257.1271    6376.0328    -568.3542    4161.8423    305.61893     7282 
495000000   -4915.4732   -1284.6612    6539.9276   -525.84587    4156.6579    313.47481     7282 
496000000   -4936.9361   -1451.9537    6480.8565   -537.24603    4022.2284    310.64338     7279 
497000000   -4914.0417   -1439.4491    6424.5944   -641.41211    4116.0048     307.9466     7283 
498000000   -4931.9726   -1263.1538    6389.2476   -483.57861    4152.3975    306.25235     7282 
499000000   -4999.3316   -1464.5527    6506.4055   -571.85712     4106.636    311.86801     7281 
500000000   -4984.9207   -1510.1991    6458.7495   -605.49549     4080.217    309.58374     7279 
Loop time of 29233.7 on 14 procs for 100000000 steps with 7000 atoms

Performance: 8866.481 ns/day, 0.003 hours/ns, 3420.710 timesteps/s
99.5% CPU use with 14 MPI tasks x no OpenMP threads

MPI task timing breakdown:
Section |  min time  |  avg time  |  max time  |%varavg| %total
---------------------------------------------------------------
Pair    | 6535.9     | 7593.5     | 8384.1     | 663.8 | 25.98
Bond    | 1165.8     | 1202       | 1233.4     |  62.4 |  4.11
Neigh   | 4748.3     | 4790.9     | 4841.3     |  40.9 | 16.39
Comm    | 7252.9     | 8730.4     | 10884      |1224.3 | 29.86
Output  | 0.50686    | 0.50711    | 0.50732    |   0.0 |  0.00
Modify  | 4738       | 4848.5     | 4908.6     |  79.6 | 16.59
Other   |            | 2068       |            |       |  7.07

Nlocal:    500 ave 528 max 480 min
Histogram: 2 2 3 0 3 0 1 0 1 2
Nghost:    784.571 ave 980 max 595 min
Histogram: 1 3 3 1 0 0 0 0 3 3
Neighs:    9593.57 ave 11213 max 8116 min
Histogram: 2 2 1 1 2 0 2 1 1 2

Total # of neighbors = 134310
Ave neighs/atom = 19.1871
Ave special neighs/atom = 7.43629
Neighbor list builds = 6160824
Dangerous builds = 0

write_restart final_state_${fName}.restart
write_restart final_state_Run9_S10N05_rlx.restart
write_data final_state_${fName}.DATA
write_data final_state_Run9_S10N05_rlx.DATA
Total wall time: 8:07:14
