
units           real
boundary p p p
atom_style      full

read_restart final_state_Relax_Es_10kT_Ens_0.3kT.restart
  restoring atom style full from restart
  orthogonal box = (-500 -500 -500) to (500 500 500)
  1 by 2 by 7 MPI processor grid
  restoring pair style lj/cut from restart
  restoring bond style hybrid from restart
  restoring angle style cosine from restart
  7000 atoms
  7256 bonds
  6600 angles
  3 = max # of 1-2 neighbors
  4 = max # of 1-3 neighbors
  8 = max # of 1-4 neighbors
  16 = max # of special neighbors
  special bonds CPU = 0.0221434 secs
  read_restart CPU = 0.196425 secs

change_box all x final -500.0 500.0 y final -500.0 500.0 z final -500.0 500.0
  orthogonal box = (-500 -500 -500) to (500 500 500)
  orthogonal box = (-500 -500 -500) to (500 500 500)
  orthogonal box = (-500 -500 -500) to (500 500 500)

neighbor 1.9 bin
neigh_modify every 1 delay 1 check yes

angle_style  cosine
angle_coeff   *  2  # K (energy unit)

bond_style 		 hybrid harmonic harmonic/shift/cut
bond_coeff   1   harmonic 3   10
bond_coeff   2   harmonic 3   10
bond_coeff   3   harmonic/shift/cut 5.922   11.22   12.72


pair_style lj/cut 25

pair_coeff  * * 0.178 10 25

special_bonds lj  0 1 1 angle yes
  3 = max # of 1-2 neighbors
  4 = max # of 1-3 neighbors
  8 = max # of 1-4 neighbors
  16848 = # of 1-3 neighbors before angle trim
  13200 = # of 1-3 neighbors after angle trim
  16 = max # of special neighbors
  special bonds CPU = 0.00175224 secs

variable t equal step
variable steps equal 100000000
variable dt_thermo equal 1000000
variable dt_movie equal 5000000
variable dt_restart equal 10000000

group rxnSites type 1 3
1000 atoms in group rxnSites

# fix ID group-ID(atom-types) bond/create Nevery itype jtype Rmin bondtype (prob values = fraction seed) (iparam maxbond newType)
fix bondc rxnSites bond/create/random 20 1 3 12.72 3 prob 1 ${seed} iparam 1 1 jparam 1 3
fix bondc rxnSites bond/create/random 20 1 3 12.72 3 prob 1 81294 iparam 1 1 jparam 1 3

# fix ID group-ID bond/break Nevery bondtype Rmax keyword values ...
fix bondbr rxnSites bond/break 20 3 12.72 prob 1 ${seed}
fix bondbr rxnSites bond/break 20 3 12.72 prob 1 81294

variable frmbnd equal f_bondc[2]
variable brkbnd equal f_bondbr[2]
fix saveBond all print ${dt_thermo} "$t ${frmbnd} ${brkbnd}" file BondData_${fName}.dat screen no
fix saveBond all print 1000000 "$t ${frmbnd} ${brkbnd}" file BondData_${fName}.dat screen no
fix saveBond all print 1000000 "$t ${frmbnd} ${brkbnd}" file BondData_Run1_S10N03_rlx.dat screen no

thermo_style    custom step epair pe ke ebond eangle temp bonds
thermo          ${dt_thermo}
thermo          1000000
fix saveThermo all print ${dt_thermo} "$t $(temp) $(ke) $(pe) $(epair) $(ebond) $(eangle) $(bonds)" file Thermo_${fName}.dat title "# Steps Temp KinEng PotEng Epair Ebond Eangle Bonds" screen no
fix saveThermo all print 1000000 "$t $(temp) $(ke) $(pe) $(epair) $(ebond) $(eangle) $(bonds)" file Thermo_${fName}.dat title "# Steps Temp KinEng PotEng Epair Ebond Eangle Bonds" screen no
fix saveThermo all print 1000000 "$t $(temp) $(ke) $(pe) $(epair) $(ebond) $(eangle) $(bonds)" file Thermo_Run1_S10N03_rlx.dat title "# Steps Temp KinEng PotEng Epair Ebond Eangle Bonds" screen no

############################ Langevin Dynamics ###############################
fix fxlan all langevin $T $T 500 ${seed}
fix fxlan all langevin 310 $T 500 ${seed}
fix fxlan all langevin 310 310 500 ${seed}
fix fxlan all langevin 310 310 500 81294
fix fxnve all nve

comm_style tiled
fix fxbal all balance 1000 1.1 rcb # load balance for spatially heterogeneous system

timestep 30

dump coor all custom ${dt_movie} traj_${fName}.dump id type mol mass x y z xu yu zu
dump coor all custom 5000000 traj_${fName}.dump id type mol mass x y z xu yu zu
dump coor all custom 5000000 traj_Run1_S10N03_rlx.dump id type mol mass x y z xu yu zu


restart ${dt_restart} ${fName}_tp_*.restart
restart 10000000 ${fName}_tp_*.restart
restart 10000000 Run1_S10N03_rlx_tp_*.restart
run ${steps}
run 100000000
Neighbor list info ...
  update every 1 steps, delay 1 steps, check yes
  max neighbors/atom: 2000, page size: 100000
  master list distance cutoff = 26.9
  ghost atom cutoff = 26.9
  binsize = 13.45, bins = 75 75 75
  2 neighbor lists, perpetual/occasional/extra = 1 1 0
  (1) pair lj/cut, perpetual
      attributes: half, newton on
      pair build: half/bin/newton
      stencil: half/bin/3d/newton
      bin: standard
  (2) fix bond/create/random, occasional, copy from (1)
      attributes: half, newton on
      pair build: copy
      stencil: none
      bin: none
Per MPI rank memory allocation (min/avg/max) = 10.32 | 10.76 | 11.44 Mbytes
Step E_pair PotEng KinEng E_bond E_angle Temp Bonds 
300000000   -1296.9182    2246.5884    6491.2915   -492.70605    4036.2127    311.14356     7256 
301000000   -1311.7346    2200.0736    6550.4362   -486.16082     3997.969    313.97851     7260 
302000000   -1306.3042    2266.5683    6364.8771   -473.06605    4045.9386    305.08421     7259 
303000000   -1315.6525    2156.9608    6521.1733   -480.20174    3952.8151    312.57587     7259 
304000000   -1286.3458    2342.7072    6423.3651   -404.55234    4033.6054    307.88768     7261 
305000000    -1283.464    2318.3101    6504.4782   -401.48729    4003.2615    311.77563     7260 
306000000   -1345.1302    2244.6828    6477.4386   -447.91625    4037.7292    310.47956     7260 
307000000   -1299.3548    2217.7363    6500.1675   -505.95043    4023.0415    311.56901     7263 
308000000   -1264.7019    2286.4882    6415.3215   -395.69787     3946.888    307.50213     7258 
309000000   -1348.8692    2047.8727    6460.0838   -558.96339    3955.7053     309.6477     7266 
310000000   -1299.1013    2306.2778    6540.2046   -404.60383     4009.983    313.48809     7264 
311000000   -1323.0156    2162.7424    6392.7358   -453.09008    3938.8481    306.41954     7264 
312000000   -1345.6139    2192.6322    6403.0583   -433.83478    3972.0809    306.91432     7257 
313000000   -1343.2119    2179.5772    6510.0137   -510.01127    4032.8003    312.04096     7259 
314000000   -1420.7236    2236.8468    6364.7307   -423.71307    4081.2835    305.07719     7261 
315000000   -1382.1822    2139.0126    6422.4785   -495.62458    4016.8194    307.84519     7255 
316000000   -1344.7114    2214.3865     6508.764   -468.78547    4027.8834    311.98106     7260 
317000000   -1361.9763    2104.7507    6503.4346   -514.63153    3981.3585    311.72561     7262 
318000000   -1395.4208    2104.9797    6381.1753   -506.44455     4006.845    305.86542     7261 
319000000    -1348.598    2189.8673    6504.6445   -481.79963    4020.2649     311.7836     7258 
320000000   -1425.1143     2145.786    6487.0279   -538.53424    4109.4345     310.9392     7266 
321000000   -1365.4457    2114.5564     6410.978   -503.30818    3983.3103    307.29394     7266 
322000000   -1335.5224     2249.941    6464.0514   -491.91389    4077.3773    309.83787     7263 
323000000   -1383.0414    2108.1559    6473.5828   -434.64004    3925.8374    310.29474     7260 
324000000    -1358.326     2172.022    6478.7696   -450.75334    3981.1013    310.54336     7259 
325000000   -1368.6944    2157.1196    6568.6955   -462.96527    3988.7793    314.85373     7260 
326000000    -1342.732    2199.2806    6537.1919   -473.07553    4015.0881    313.34368     7260 
327000000   -1365.7314    2133.8624    6462.5571   -462.93807    3962.5319    309.76625     7258 
328000000   -1360.6262    2140.1394    6521.2874   -507.44578    4008.2114    312.58134     7262 
329000000   -1330.1599    2153.3611    6476.6455   -480.40858    3963.9296    310.44154     7262 
330000000   -1288.9052     2148.831      6514.52   -479.38956    3917.1258    312.25696     7258 
331000000   -1277.1348    2200.7102     6534.973   -447.29842    3925.1434    313.23732     7258 
332000000   -1365.2276    2114.9203    6527.6347   -492.02004     3972.168    312.88558     7261 
333000000    -1323.287    2124.8845    6407.2709   -480.83118    3929.0027    307.11625     7258 
334000000   -1308.6274    2202.8776    6439.9611   -482.39156    3993.8966    308.68317     7260 
335000000   -1312.4069    2126.3288    6499.1284   -458.86273    3897.5984     311.5192     7258 
336000000    -1323.627    2190.9523    6470.7972   -454.44703    3969.0262    310.16122     7258 
337000000   -1328.8313    2201.6459    6677.3623   -483.87245    4014.3497    320.06239     7257 
338000000   -1372.1685    2210.0958    6424.1589    -446.0912    4028.3555    307.92573     7261 
339000000   -1329.2659    2141.3158    6541.8641   -479.55008    3950.1317    313.56763     7265 
340000000   -1347.0789    2105.2623    6389.2387   -511.66259    3964.0037    306.25192     7267 
341000000    -1337.134    2145.9698    6468.5881   -529.57124     4012.675    310.05533     7264 
342000000   -1342.8441    2182.2667    6443.0429   -541.16312    4066.2739    308.83089     7266 
343000000   -1328.7511    2113.2341    6432.2964   -538.84291    3980.8281    308.31578     7266 
344000000   -1343.8679    2126.7431    6516.9187   -482.77468    3953.3857    312.37194     7261 
345000000   -1375.7663     2115.187    6417.9723   -542.03892    4032.9923    307.62919     7270 
346000000   -1331.8514    2250.4493    6459.7461   -476.51227     4058.813    309.63151     7265 
347000000   -1367.1582    2116.4218    6616.8387   -512.84129    3996.4212    317.16135     7264 
348000000   -1324.1752    2213.3811    6494.9982   -530.67359    4068.2299    311.32123     7263 
349000000   -1332.3971    2245.3793    6363.6415   -490.99975    4068.7762    305.02498     7265 
350000000   -1363.4718    2099.6525    6358.8046   -508.29235    3971.4167    304.79314     7268 
351000000   -1334.4932    2076.7084    6501.9764   -537.55374    3948.7554    311.65571     7268 
352000000    -1377.056    2233.3952    6533.1722   -459.40647    4069.8577      313.151     7261 
353000000    -1330.213    2267.0172    6506.9031   -455.56029    4052.7905    311.89186     7259 
354000000   -1325.8132    2243.3746    6425.4052   -435.29812    4004.4859    307.98547     7258 
355000000   -1367.2842    2146.5589    6485.5268   -452.68367    3966.5268    310.86724     7259 
356000000     -1359.29    2209.6268    6467.7558   -476.84581    4045.7626    310.01544     7256 
357000000   -1368.4027    2184.2561    6530.3377    -435.2345    3987.8933    313.01514     7256 
358000000     -1357.21    2034.3642    6485.7038   -574.74218    3966.3164    310.87573     7263 
359000000   -1356.4443    2182.8564    6505.0045   -467.05922    4006.3599    311.80086     7252 
360000000   -1301.1355    2176.2606    6513.1699   -474.63567    3952.0317    312.19225     7259 
361000000   -1355.6582    2149.5693    6418.6285   -505.24871    4010.4762    307.66064     7262 
362000000   -1329.2059    2119.3205    6448.3518    -520.5337      3969.06    309.08535     7263 
363000000   -1369.8278    2063.6836     6535.901   -507.03349    3940.5449     313.2818     7261 
364000000   -1348.2303    2101.4998    6366.9811   -474.32493    3924.0551    305.18506     7258 
365000000   -1360.6343     2122.592     6409.173   -517.69795    4000.9242    307.20742     7257 
366000000   -1323.6093    2166.0483    6409.7355   -539.09705    4028.7547    307.23438     7262 
367000000   -1309.9163    2285.3666    6453.2882   -481.60127    4076.8842    309.32197     7266 
368000000   -1365.0024    2061.2416    6557.4832    -540.0039    3966.2478    314.31629     7269 
369000000   -1380.9314    1959.3546     6441.012   -601.12552    3941.4115    308.73354     7268 
370000000   -1317.7929    2249.9576    6517.7651   -521.72025    4089.4707     312.4125     7267 
371000000   -1376.8431    2163.2444    6422.8759    -480.2132    4020.3006    307.86423     7271 
372000000   -1340.9212    2176.5407    6396.9823    -530.9699    4048.4318    306.62309     7266 
373000000   -1305.7247    2215.2412     6523.539   -496.80934    4017.7752    312.68926     7264 
374000000    -1369.249    2115.5175    6482.8573   -512.73786    3997.5044    310.73929     7267 
375000000   -1376.2267    2170.0859    6408.4327   -523.69448    4070.0071    307.17193     7265 
376000000   -1407.2909    2154.5665    6423.4843   -483.79966    4045.6571     307.8934     7266 
377000000   -1346.9781    2188.9984    6421.4837    -522.3391    4058.3156     307.7975     7267 
378000000   -1338.4572    2210.2921    6497.0896   -533.38728    4082.1366    311.42148     7272 
379000000   -1340.9454    2136.1038    6588.8676    -496.1886    3973.2378    315.82062     7270 
380000000   -1375.3397    2214.6585     6478.752   -492.20981     4082.208    310.54251     7270 
381000000   -1362.1132    2101.2324    6485.8487   -499.60583    3962.9514    310.88267     7266 
382000000   -1413.6877    2052.6489    6519.1021   -546.37967    4012.7163    312.47659     7268 
383000000   -1375.8897    2227.3549    6424.2233   -517.58357    4120.8281    307.92881     7268 
384000000   -1385.0885    2149.2729    6439.5082   -454.72193    3989.0834    308.66146     7270 
385000000   -1382.2495    2058.6144    6420.3311   -540.80567    3981.6696    307.74225     7270 
386000000   -1416.6357     2076.773     6439.604   -539.88937    4033.2981    308.66605     7266 
387000000   -1374.4707    2082.5288    6337.4005   -550.75451     4007.754    303.76718     7265 
388000000   -1376.6909    2128.7995    6482.4716   -479.66139    3985.1517     310.7208     7266 
389000000   -1375.6547    2125.1481    6559.6535   -425.62157    3926.4244    314.42032     7267 
390000000   -1358.4928    2088.9827    6497.2605   -498.92553     3946.401    311.42967     7261 
391000000   -1368.6225    2142.9798    6506.3923   -505.20775    4016.8101    311.86738     7256 
392000000   -1380.6074    2103.5616    6542.2656   -498.83193    3983.0008    313.58688     7263 
393000000   -1374.8516    2188.3661    6593.1004   -491.61062    4054.8283    316.02351     7264 
394000000   -1346.8199    2207.5376    6474.8187   -502.28457    4056.6421    310.35398     7262 
395000000   -1330.6976    2185.5793    6472.7901   -520.69909    4036.9761    310.25674     7264 
396000000   -1357.4139     1973.565      6389.46   -547.74592    3878.7248    306.26253     7264 
397000000   -1357.7208     2091.596    6445.1917   -555.41386    4004.7306    308.93388     7264 
398000000   -1316.7622    2246.3093    6620.8611   -449.75146    4012.8229    317.35415     7263 
399000000   -1318.2651    2246.4416    6403.3622   -521.91552    4086.6222    306.92889     7264 
400000000   -1297.7048     2088.732    6516.5138   -555.38223     3941.819    312.35252     7266 
Loop time of 21415.6 on 14 procs for 100000000 steps with 7000 atoms

Performance: 12103.306 ns/day, 0.002 hours/ns, 4669.485 timesteps/s
99.5% CPU use with 14 MPI tasks x no OpenMP threads

MPI task timing breakdown:
Section |  min time  |  avg time  |  max time  |%varavg| %total
---------------------------------------------------------------
Pair    | 3175.8     | 3662       | 4151.4     | 457.6 | 17.10
Bond    | 1147.7     | 1182.5     | 1210.8     |  50.3 |  5.52
Neigh   | 3459.9     | 3492.9     | 3546.4     |  40.1 | 16.31
Comm    | 6472.6     | 7178.8     | 8353.8     | 618.0 | 33.52
Output  | 0.43165    | 0.43187    | 0.43209    |   0.0 |  0.00
Modify  | 4226.2     | 4329.2     | 4369.3     |  62.0 | 20.22
Other   |            | 1570       |            |       |  7.33

Nlocal:    500 ave 525 max 476 min
Histogram: 1 1 0 1 4 4 1 1 0 1
Nghost:    608.214 ave 807 max 370 min
Histogram: 2 0 2 1 3 0 0 1 3 2
Neighs:    4796.5 ave 5585 max 3932 min
Histogram: 1 1 0 3 3 2 0 0 1 3

Total # of neighbors = 67151
Ave neighs/atom = 9.593
Ave special neighs/atom = 7.388
Neighbor list builds = 6165779
Dangerous builds = 0
write_restart final_state_${fName}.restart
write_restart final_state_Run1_S10N03_rlx.restart
write_data final_state_${fName}.DATA
write_data final_state_Run1_S10N03_rlx.DATA
Total wall time: 5:56:56
