
units           real
boundary p p p
atom_style      full

read_restart final_state_Relax_Es_10kT_Ens_0.3kT.restart
  restoring atom style full from restart
  orthogonal box = (-500 -500 -500) to (500 500 500)
  1 by 2 by 7 MPI processor grid
  restoring pair style lj/cut from restart
  restoring bond style hybrid from restart
  restoring angle style cosine from restart
  7000 atoms
  7256 bonds
  6600 angles
  3 = max # of 1-2 neighbors
  4 = max # of 1-3 neighbors
  8 = max # of 1-4 neighbors
  16 = max # of special neighbors
  special bonds CPU = 0.0153129 secs
  read_restart CPU = 0.184013 secs

change_box all x final -500.0 500.0 y final -500.0 500.0 z final -500.0 500.0
  orthogonal box = (-500 -500 -500) to (500 500 500)
  orthogonal box = (-500 -500 -500) to (500 500 500)
  orthogonal box = (-500 -500 -500) to (500 500 500)

neighbor 1.9 bin
neigh_modify every 1 delay 1 check yes

angle_style  cosine
angle_coeff   *  2  # K (energy unit)

bond_style 		 hybrid harmonic harmonic/shift/cut
bond_coeff   1   harmonic 3   10
bond_coeff   2   harmonic 3   10
bond_coeff   3   harmonic/shift/cut 5.922   11.22   12.72


pair_style lj/cut 25

pair_coeff  * * 0.178 10 25

special_bonds lj  0 1 1 angle yes
  3 = max # of 1-2 neighbors
  4 = max # of 1-3 neighbors
  8 = max # of 1-4 neighbors
  16848 = # of 1-3 neighbors before angle trim
  13200 = # of 1-3 neighbors after angle trim
  16 = max # of special neighbors
  special bonds CPU = 0.00182893 secs

variable t equal step
variable steps equal 100000000
variable dt_thermo equal 1000000
variable dt_movie equal 5000000
variable dt_restart equal 10000000

group rxnSites type 1 3
1000 atoms in group rxnSites

# fix ID group-ID(atom-types) bond/create Nevery itype jtype Rmin bondtype (prob values = fraction seed) (iparam maxbond newType)
fix bondc rxnSites bond/create/random 20 1 3 12.72 3 prob 1 ${seed} iparam 1 1 jparam 1 3
fix bondc rxnSites bond/create/random 20 1 3 12.72 3 prob 1 314547 iparam 1 1 jparam 1 3

# fix ID group-ID bond/break Nevery bondtype Rmax keyword values ...
fix bondbr rxnSites bond/break 20 3 12.72 prob 1 ${seed}
fix bondbr rxnSites bond/break 20 3 12.72 prob 1 314547

variable frmbnd equal f_bondc[2]
variable brkbnd equal f_bondbr[2]
fix saveBond all print ${dt_thermo} "$t ${frmbnd} ${brkbnd}" file BondData_${fName}.dat screen no
fix saveBond all print 1000000 "$t ${frmbnd} ${brkbnd}" file BondData_${fName}.dat screen no
fix saveBond all print 1000000 "$t ${frmbnd} ${brkbnd}" file BondData_Run10_S10N03_rlx.dat screen no

thermo_style    custom step epair pe ke ebond eangle temp bonds
thermo          ${dt_thermo}
thermo          1000000
fix saveThermo all print ${dt_thermo} "$t $(temp) $(ke) $(pe) $(epair) $(ebond) $(eangle) $(bonds)" file Thermo_${fName}.dat title "# Steps Temp KinEng PotEng Epair Ebond Eangle Bonds" screen no
fix saveThermo all print 1000000 "$t $(temp) $(ke) $(pe) $(epair) $(ebond) $(eangle) $(bonds)" file Thermo_${fName}.dat title "# Steps Temp KinEng PotEng Epair Ebond Eangle Bonds" screen no
fix saveThermo all print 1000000 "$t $(temp) $(ke) $(pe) $(epair) $(ebond) $(eangle) $(bonds)" file Thermo_Run10_S10N03_rlx.dat title "# Steps Temp KinEng PotEng Epair Ebond Eangle Bonds" screen no

############################ Langevin Dynamics ###############################
fix fxlan all langevin $T $T 500 ${seed}
fix fxlan all langevin 310 $T 500 ${seed}
fix fxlan all langevin 310 310 500 ${seed}
fix fxlan all langevin 310 310 500 314547
fix fxnve all nve

comm_style tiled
fix fxbal all balance 1000 1.1 rcb # load balance for spatially heterogeneous system

timestep 30

dump coor all custom ${dt_movie} traj_${fName}.dump id type mol mass x y z xu yu zu
dump coor all custom 5000000 traj_${fName}.dump id type mol mass x y z xu yu zu
dump coor all custom 5000000 traj_Run10_S10N03_rlx.dump id type mol mass x y z xu yu zu


restart ${dt_restart} ${fName}_tp_*.restart
restart 10000000 ${fName}_tp_*.restart
restart 10000000 Run10_S10N03_rlx_tp_*.restart
run ${steps}
run 100000000
Neighbor list info ...
  update every 1 steps, delay 1 steps, check yes
  max neighbors/atom: 2000, page size: 100000
  master list distance cutoff = 26.9
  ghost atom cutoff = 26.9
  binsize = 13.45, bins = 75 75 75
  2 neighbor lists, perpetual/occasional/extra = 1 1 0
  (1) pair lj/cut, perpetual
      attributes: half, newton on
      pair build: half/bin/newton
      stencil: half/bin/3d/newton
      bin: standard
  (2) fix bond/create/random, occasional, copy from (1)
      attributes: half, newton on
      pair build: copy
      stencil: none
      bin: none
Per MPI rank memory allocation (min/avg/max) = 10.32 | 10.76 | 11.44 Mbytes
Step E_pair PotEng KinEng E_bond E_angle Temp Bonds 
300000000   -1296.9182    2246.5884    6491.2915   -492.70605    4036.2127    311.14356     7256 
301000000   -1353.0969    2283.7362    6465.5447   -465.82351    4102.6566    309.90945     7259 
302000000   -1322.5557    2196.3781    6511.6779   -465.94137    3984.8752    312.12073     7262 
303000000   -1316.6349     2132.771    6468.8745   -506.68496    3956.0909    310.06906     7261 
304000000   -1317.5153    2196.8412    6589.1236   -520.83826    4035.1947    315.83289     7261 
305000000   -1336.3297    2182.1998    6332.5961   -470.63922    3989.1688     303.5369     7254 
306000000   -1299.1482    2237.6999    6453.8126   -454.94262    3991.7906     309.3471     7257 
307000000   -1355.4101    2213.0194    6391.7213   -434.08524    4002.5147    306.37091     7258 
308000000   -1275.3465    2320.4931    6486.6001   -383.15336    3978.9929    310.91869     7257 
309000000   -1317.1704    2266.7002    6538.0519    -472.1831    4056.0538     313.3849     7257 
310000000   -1314.6697    2274.2671    6555.1431   -491.55229     4080.489    314.20413     7260 
311000000   -1260.7354    2248.8204    6395.9063   -470.90675    3980.4626    306.57151     7257 
312000000   -1334.3912    2129.9879    6454.3506   -512.26502    3976.6441    309.37289     7262 
313000000   -1333.1677    2208.3337    6486.2722   -476.48248    4017.9839    310.90297     7265 
314000000   -1297.1212     2275.991    6382.7221   -437.68466    4010.7968    305.93956     7260 
315000000   -1278.8483     2220.476    6354.4625   -487.33668    3986.6609    304.58501     7257 
316000000    -1324.743    2107.0132    6461.6851   -450.21394    3881.9702    309.72445     7257 
317000000   -1310.9814     2192.047    6509.5501   -451.56501    3954.5934    312.01874     7260 
318000000    -1316.175    2167.8735    6568.6815   -518.48865    4002.5372    314.85305     7263 
319000000   -1316.9551    2308.7726    6496.2854   -429.01465    4054.7423    311.38293     7262 
320000000   -1359.9557     2196.442    6488.7903   -494.33159    4050.7293    311.02367     7256 
321000000   -1313.5393    2200.3703    6500.3595   -491.61833    4005.5279    311.57821     7257 
322000000   -1342.6946    2228.0001    6467.3546   -461.58862    4032.2833    309.99621     7260 
323000000    -1271.511    2210.6643    6436.9383   -555.73608    4037.9114    308.53828     7259 
324000000   -1327.6192    2150.5763    6525.4139   -479.95061    3958.1461    312.77913     7254 
325000000   -1324.7449    2170.1406    6515.0585   -485.99722    3980.8827    312.28277     7262 
326000000   -1326.6113    2206.1602    6437.0348   -455.42932    3988.2009     308.5429     7258 
327000000    -1272.316    2318.2745    6411.2336   -411.28536    4001.8759    307.30619     7256 
328000000   -1280.6219    2092.0134    6454.9726   -535.43576     3908.071    309.40271     7264 
329000000   -1333.1721    2201.3291    6516.7589   -478.67876    4013.1799    312.36428     7263 
330000000   -1345.9423    2251.6415    6534.6626     -441.287    4038.8708    313.22244     7261 
331000000   -1325.2636    2183.3188    6411.3486   -498.35622    4006.9386     307.3117     7262 
332000000   -1324.5602    2191.9946    6439.5779   -511.24784    4027.8026     308.6648     7268 
333000000   -1324.3808    2204.5607    6398.8373   -459.57619    3988.5177      306.712     7259 
334000000   -1371.1963     2190.678    6376.8598   -446.67806    4008.5523    305.65857     7262 
335000000   -1352.3747    2153.0275    6531.3751   -460.82988     3966.232    313.06487     7267 
336000000    -1356.194    2140.1621    6490.0845   -511.44036    4007.7965     311.0857     7265 
337000000   -1364.8612    2108.7056    6570.6788    -512.2401    3985.8069    314.94879     7268 
338000000   -1305.1979    2110.4542    6428.4064   -474.91224    3890.5643    308.12932     7269 
339000000   -1248.6676    2186.0731    6368.7603   -513.85057    3948.5913    305.27034     7265 
340000000   -1272.3374     2116.194    6394.9657   -562.41696    3950.9484    306.52643     7263 
341000000    -1262.126    2239.9934     6418.131   -486.27355     3988.393     307.6368     7263 
342000000   -1241.2745    2198.9752    6399.1549   -530.97727     3971.227    306.72723     7262 
343000000   -1288.3891    2222.0676    6418.3117   -476.26216    3986.7189    307.64546     7260 
344000000   -1281.5217    2260.0666    6566.3152   -484.77766     4026.366    314.73963     7258 
345000000   -1299.7333    2091.8523     6432.064   -566.18412    3957.7697    308.30464     7262 
346000000   -1289.4374    2257.8601    6462.3654   -448.37383    3995.6713    309.75706     7266 
347000000   -1280.2372     2157.148    6384.1985   -520.04209    3957.4273    306.01033     7263 
348000000   -1228.4706    2192.0369     6475.101   -527.27261    3947.7801    310.36751     7261 
349000000   -1288.5189    2173.0313    6526.9156   -501.21078    3962.7609    312.85111     7262 
350000000   -1268.0544    2299.1572    6464.1317   -431.14178    3998.3533    309.84172     7257 
351000000   -1240.8953    2303.4158    6525.2956   -481.69758    4026.0087    312.77346     7251 
352000000   -1270.9437    2300.5024    6491.8646   -452.68878    4024.1348    311.17103     7255 
353000000   -1257.3953    2293.5639    6487.7261   -432.55587    3983.5151    310.97266     7255 
354000000   -1284.5695    2322.6793    6337.3174   -480.13968    4087.3886     303.7632     7258 
355000000    -1291.403    2191.2046    6427.5766   -540.99348    4023.6011    308.08955     7260 
356000000   -1280.5537    2166.2177    6575.2027   -549.78998    3996.5613    315.16563     7265 
357000000   -1305.2831    2198.4962    6537.4543    -499.4907      4003.27    313.35626     7265 
358000000   -1273.3515    2242.1368     6419.135   -527.85669     4043.345    307.68492     7260 
359000000   -1275.3756     2255.653    6394.7392   -459.86429    3990.8928    306.51557     7256 
360000000   -1286.4138    2303.6333    6423.3512   -451.31324    4041.3603    307.88702     7262 
361000000   -1315.9434     2163.684    6353.8847   -528.29912    4007.9265    304.55731     7261 
362000000   -1287.2699    2217.8081    6481.5319   -502.69379    4007.7718    310.67576     7263 
363000000   -1318.0506    2222.3418    6440.8788    -474.8884    4015.2808    308.72715     7265 
364000000   -1315.8432    2176.3018    6370.7265   -515.17198    4007.3169    305.36458     7259 
365000000   -1307.4692    2288.8719    6394.2762   -469.34223    4065.6833    306.49338     7261 
366000000    -1311.708      2237.55    6414.2001   -450.36242    3999.6204    307.44838     7256 
367000000   -1269.9062    2158.8793    6556.8659   -545.76537    3974.5509     314.2867     7262 
368000000   -1316.8574    2222.8243    6425.0585   -447.53069    3987.2124    307.96885     7256 
369000000   -1320.9674    2288.7633    6396.2091   -410.27454    4020.0052    306.58603     7252 
370000000   -1275.3696    2243.8217    6492.0459   -472.35933    3991.5506    311.17972     7255 
371000000   -1323.6711    2282.3329    6476.7941   -450.77481    4056.7788    310.44866     7254 
372000000   -1313.8767    2250.0532    6407.6002   -489.69348    4053.6234    307.13203     7264 
373000000   -1358.6301    2102.8163    6521.8286   -491.59684    3953.0433    312.60728     7260 
374000000   -1305.2404    2252.2893     6443.139   -455.93316    4013.4628    308.83549     7255 
375000000    -1287.546    2180.0317    6509.1345   -473.81732     3941.395    311.99882     7261 
376000000   -1297.8288    2221.3733    6573.4221     -482.369    4001.5711    315.08028     7261 
377000000   -1315.0963    2101.6409     6491.322   -538.80776    3955.5449    311.14502     7264 
378000000   -1320.7835    2215.4924    6483.9415    -500.0532    4036.3291    310.79126     7260 
379000000   -1299.2703     2235.932    6342.9029   -454.36317    3989.5655    304.03093     7260 
380000000   -1314.6128    2148.8307    6433.1043   -524.11879    3987.5623     308.3545     7258 
381000000   -1275.3951    2239.3369    6429.7391   -506.68227    4021.4143     308.1932     7259 
382000000   -1295.9361    2212.6068    6472.4245   -459.12642    3967.6693    310.23922     7254 
383000000    -1285.994    2250.3786    6459.8262   -462.93088    3999.3035    309.63535     7255 
384000000   -1309.7547    2169.2937    6478.1208   -468.35225    3947.4007    310.51225     7256 
385000000   -1296.6296    2210.3146    6441.7063   -438.18369    3945.1279    308.76682     7256 
386000000   -1320.5152    2202.1865    6503.6315   -459.65812    3982.3599    311.73505     7257 
387000000   -1348.0003    2224.3001    6496.3566   -470.16861     4042.469    311.38635     7254 
388000000   -1320.1497    2242.0312    6437.3426   -432.98339    3995.1643    308.55766     7250 
389000000   -1333.2443    2179.3114     6547.686   -476.68116    3989.2369    313.84669     7254 
390000000   -1305.8087    2256.0333    6429.2903   -453.51552    4015.3575    308.17169     7252 
391000000   -1344.8764    2135.1604    6405.3753   -491.24926     3971.286    307.02539     7256 
392000000   -1360.0299    2105.0923    6460.5906   -495.25843    3960.3806    309.67199     7258 
393000000   -1375.1361    2270.0415    6391.2077   -418.22134     4063.399     306.3463     7254 
394000000   -1349.3475    2310.5838    6493.7958   -428.32843    4088.2597     311.2636     7262 
395000000    -1311.424    2295.2427    6534.8841   -461.76469    4068.4313    313.23306     7264 
396000000   -1333.5764     2162.057    6453.4523   -495.99386    3991.6272    309.32983     7269 
397000000    -1341.781    2126.0401    6528.5452   -527.89754    3995.7187    312.92922     7268 
398000000   -1301.6787    2285.8778    6469.5702   -505.69145     4093.248     310.1024     7265 
399000000   -1302.9728    2231.9109    6435.8724   -530.39453    4065.2783    308.48719     7267 
400000000    -1294.786    2267.6953    6420.4033   -500.61954    4063.1008    307.74572     7265 
Loop time of 21994.2 on 14 procs for 100000000 steps with 7000 atoms

Performance: 11784.947 ns/day, 0.002 hours/ns, 4546.662 timesteps/s
99.5% CPU use with 14 MPI tasks x no OpenMP threads

MPI task timing breakdown:
Section |  min time  |  avg time  |  max time  |%varavg| %total
---------------------------------------------------------------
Pair    | 3074.7     | 3485.1     | 3960.9     | 471.1 | 15.85
Bond    | 1103.9     | 1160       | 1207.2     |  84.9 |  5.27
Neigh   | 3386.4     | 3418.6     | 3470       |  43.3 | 15.54
Comm    | 7132       | 7744.7     | 8532.2     | 495.6 | 35.21
Output  | 0.46564    | 0.46585    | 0.4662     |   0.0 |  0.00
Modify  | 4362.9     | 4478.7     | 4584.1     |  91.3 | 20.36
Other   |            | 1707       |            |       |  7.76

Nlocal:    500 ave 535 max 468 min
Histogram: 2 0 1 2 2 4 0 0 2 1
Nghost:    598.929 ave 809 max 332 min
Histogram: 2 1 0 2 2 0 1 1 2 3
Neighs:    4715.93 ave 5680 max 3809 min
Histogram: 1 1 2 1 1 4 2 0 1 1

Total # of neighbors = 66023
Ave neighs/atom = 9.43186
Ave special neighs/atom = 7.38429
Neighbor list builds = 6166835
Dangerous builds = 0
write_restart final_state_${fName}.restart
write_restart final_state_Run10_S10N03_rlx.restart
write_data final_state_${fName}.DATA
write_data final_state_Run10_S10N03_rlx.DATA
Total wall time: 6:06:34
