
units           real
boundary p p p
atom_style      full

read_restart final_state_Relax_Es_10kT_Ens_0.3kT.restart
  restoring atom style full from restart
  orthogonal box = (-500 -500 -500) to (500 500 500)
  1 by 2 by 7 MPI processor grid
  restoring pair style lj/cut from restart
  restoring bond style hybrid from restart
  restoring angle style cosine from restart
  7000 atoms
  7256 bonds
  6600 angles
  3 = max # of 1-2 neighbors
  4 = max # of 1-3 neighbors
  8 = max # of 1-4 neighbors
  16 = max # of special neighbors
  special bonds CPU = 0.00127674 secs
  read_restart CPU = 0.0329204 secs

change_box all x final -500.0 500.0 y final -500.0 500.0 z final -500.0 500.0
  orthogonal box = (-500 -500 -500) to (500 500 500)
  orthogonal box = (-500 -500 -500) to (500 500 500)
  orthogonal box = (-500 -500 -500) to (500 500 500)

neighbor 1.9 bin
neigh_modify every 1 delay 1 check yes

angle_style  cosine
angle_coeff   *  2  # K (energy unit)

bond_style 		 hybrid harmonic harmonic/shift/cut
bond_coeff   1   harmonic 3   10
bond_coeff   2   harmonic 3   10
bond_coeff   3   harmonic/shift/cut 5.922   11.22   12.72


pair_style lj/cut 25

pair_coeff  * * 0.178 10 25

special_bonds lj  0 1 1 angle yes
  3 = max # of 1-2 neighbors
  4 = max # of 1-3 neighbors
  8 = max # of 1-4 neighbors
  16848 = # of 1-3 neighbors before angle trim
  13200 = # of 1-3 neighbors after angle trim
  16 = max # of special neighbors
  special bonds CPU = 0.00109447 secs

variable t equal step
variable steps equal 100000000
variable dt_thermo equal 1000000
variable dt_movie equal 5000000
variable dt_restart equal 10000000

group rxnSites type 1 3
1000 atoms in group rxnSites

# fix ID group-ID(atom-types) bond/create Nevery itype jtype Rmin bondtype (prob values = fraction seed) (iparam maxbond newType)
fix bondc rxnSites bond/create/random 20 1 3 12.72 3 prob 1 ${seed} iparam 1 1 jparam 1 3
fix bondc rxnSites bond/create/random 20 1 3 12.72 3 prob 1 147774 iparam 1 1 jparam 1 3

# fix ID group-ID bond/break Nevery bondtype Rmax keyword values ...
fix bondbr rxnSites bond/break 20 3 12.72 prob 1 ${seed}
fix bondbr rxnSites bond/break 20 3 12.72 prob 1 147774

variable frmbnd equal f_bondc[2]
variable brkbnd equal f_bondbr[2]
fix saveBond all print ${dt_thermo} "$t ${frmbnd} ${brkbnd}" file BondData_${fName}.dat screen no
fix saveBond all print 1000000 "$t ${frmbnd} ${brkbnd}" file BondData_${fName}.dat screen no
fix saveBond all print 1000000 "$t ${frmbnd} ${brkbnd}" file BondData_Run2_S10N03_rlx.dat screen no

thermo_style    custom step epair pe ke ebond eangle temp bonds
thermo          ${dt_thermo}
thermo          1000000
fix saveThermo all print ${dt_thermo} "$t $(temp) $(ke) $(pe) $(epair) $(ebond) $(eangle) $(bonds)" file Thermo_${fName}.dat title "# Steps Temp KinEng PotEng Epair Ebond Eangle Bonds" screen no
fix saveThermo all print 1000000 "$t $(temp) $(ke) $(pe) $(epair) $(ebond) $(eangle) $(bonds)" file Thermo_${fName}.dat title "# Steps Temp KinEng PotEng Epair Ebond Eangle Bonds" screen no
fix saveThermo all print 1000000 "$t $(temp) $(ke) $(pe) $(epair) $(ebond) $(eangle) $(bonds)" file Thermo_Run2_S10N03_rlx.dat title "# Steps Temp KinEng PotEng Epair Ebond Eangle Bonds" screen no

############################ Langevin Dynamics ###############################
fix fxlan all langevin $T $T 500 ${seed}
fix fxlan all langevin 310 $T 500 ${seed}
fix fxlan all langevin 310 310 500 ${seed}
fix fxlan all langevin 310 310 500 147774
fix fxnve all nve

comm_style tiled
fix fxbal all balance 1000 1.1 rcb # load balance for spatially heterogeneous system

timestep 30

dump coor all custom ${dt_movie} traj_${fName}.dump id type mol mass x y z xu yu zu
dump coor all custom 5000000 traj_${fName}.dump id type mol mass x y z xu yu zu
dump coor all custom 5000000 traj_Run2_S10N03_rlx.dump id type mol mass x y z xu yu zu


restart ${dt_restart} ${fName}_tp_*.restart
restart 10000000 ${fName}_tp_*.restart
restart 10000000 Run2_S10N03_rlx_tp_*.restart
run ${steps}
run 100000000
Neighbor list info ...
  update every 1 steps, delay 1 steps, check yes
  max neighbors/atom: 2000, page size: 100000
  master list distance cutoff = 26.9
  ghost atom cutoff = 26.9
  binsize = 13.45, bins = 75 75 75
  2 neighbor lists, perpetual/occasional/extra = 1 1 0
  (1) pair lj/cut, perpetual
      attributes: half, newton on
      pair build: half/bin/newton
      stencil: half/bin/3d/newton
      bin: standard
  (2) fix bond/create/random, occasional, copy from (1)
      attributes: half, newton on
      pair build: copy
      stencil: none
      bin: none
Per MPI rank memory allocation (min/avg/max) = 10.32 | 10.76 | 11.44 Mbytes
Step E_pair PotEng KinEng E_bond E_angle Temp Bonds 
300000000   -1296.9182    2246.5884    6491.2915   -492.70605    4036.2127    311.14356     7256 
301000000   -1265.1819    2251.5046    6537.5271    -443.3682    3960.0547    313.35974     7255 
302000000   -1333.6571    2227.5049    6364.8028   -428.27433    3989.4363    305.08064     7253 
303000000    -1291.326    2226.2732    6444.0403   -473.14339    3990.7426     308.8787     7252 
304000000   -1309.3838    2289.2714    6490.5626    -392.4593    3991.1145    311.10862     7256 
305000000   -1330.8425    2175.2637    6387.4432    -478.3381    3984.4443    306.16586     7256 
306000000   -1333.8687    2168.5943    6556.3749   -405.81311    3908.2761    314.26317     7258 
307000000   -1294.8439    2080.3415    6426.0314   -524.80679    3899.9922    308.01548     7258 
308000000   -1337.6072    2101.1362    6431.4822   -563.53459     4002.278    308.27675     7269 
309000000   -1333.1788    2171.3853    6551.6484   -496.38097    4000.9451    314.03661     7265 
310000000   -1323.5643    2240.9225     6381.469   -446.31226     4010.799     305.8795     7264 
311000000   -1343.8152    2236.2137    6400.7943   -481.94996    4061.9789    306.80581     7265 
312000000   -1321.5154    2210.0745    6523.5568   -469.07979    4000.6697    312.69011     7267 
313000000   -1298.0092    2205.4291    6512.2584   -501.95828    4005.3966    312.14856     7265 
314000000   -1303.1232    2119.4968     6441.388   -555.61547    3978.2355    308.75156     7266 
315000000   -1340.4376    2233.3374    6339.8327   -499.46618    4073.2412    303.88377     7260 
316000000   -1363.1047    2180.0187    6416.8784   -515.34015    4058.4636    307.57676     7263 
317000000   -1365.4447    2153.7857    6469.3471   -509.06287    4028.2933    310.09171     7267 
318000000   -1391.2843    2006.6236     6615.888   -547.63547    3945.5434    317.11578     7271 
319000000    -1381.437    2090.0886    6493.9667   -525.82091    3997.3466    311.27179     7271 
320000000   -1367.8658     2146.133    6458.8226   -538.97423     4052.973    309.58724     7267 
321000000   -1398.5819    2161.6878    6497.8602   -530.17796    4090.4477    311.45842     7266 
322000000   -1371.0161    2154.8118    6545.7422   -485.38637    4011.2143    313.75352     7266 
323000000   -1366.9429    2142.9605    6517.5341   -513.42286    4023.3263    312.40143     7267 
324000000   -1345.7571    2023.0155    6543.7235   -592.01548    3960.7881    313.65675     7268 
325000000   -1402.9055     2111.937    6463.0353   -525.09675    4039.9392    309.78917     7266 
326000000    -1378.366    2188.1017    6469.8764   -454.18356    4020.6513    310.11708     7264 
327000000   -1334.1047    2184.2816    6387.8994   -500.42282    4018.8092    306.18772     7262 
328000000   -1406.0811    2075.0323      6584.84   -487.46449    3968.5778    315.62757     7263 
329000000   -1399.5182    2150.5777    6518.0453   -508.60292    4058.6988    312.42593     7265 
330000000   -1328.3057    2191.0828     6490.892   -484.67558    4004.0641    311.12441     7265 
331000000   -1360.8673    2157.8052    6608.4838   -476.97346     3995.646    316.76088     7265 
332000000    -1366.201    2052.6072     6427.189   -535.39361    3954.2018    308.07097     7268 
333000000    -1373.817    2076.2412    6545.0517   -482.43644    3932.4946    313.72042     7264 
334000000   -1354.2876    2150.1509     6505.782   -500.13743    4004.5759    311.83813     7261 
335000000   -1356.4227    2260.2923    6476.6337   -402.45512    4019.1701    310.44098     7258 
336000000   -1340.1103    2106.2757    6459.6606    -500.3521     3946.738    309.62741     7262 
337000000   -1367.7298    2254.9304    6437.0733   -444.21751    4066.8777    308.54475     7260 
338000000   -1372.9974    2176.6214    6435.8967   -502.81891    4052.4376    308.48835     7258 
339000000   -1378.4748    2108.2958     6496.902   -554.56992    4041.3405    311.41249     7261 
340000000   -1314.4783    2183.3162    6491.8266   -499.14908    3996.9436    311.16921     7263 
341000000   -1327.6255     2165.415     6462.468   -447.89495    3940.9355    309.76198     7260 
342000000   -1346.5875    2226.1179    6527.7157   -394.93338    3967.6388    312.88946     7258 
343000000    -1377.421     2166.925    6401.3917    -453.0584    3997.4044    306.83444     7257 
344000000   -1322.5983    2278.6127    6444.9217   -501.34605    4102.5571    308.92094     7259 
345000000   -1338.4612    2174.7492    6436.6732   -514.70454     4027.915    308.52557     7260 
346000000   -1402.1627    2133.7217    6486.7077   -496.99835    4032.8827    310.92385     7258 
347000000   -1374.3985    2187.6987    6492.1963   -499.31426    4061.4115    311.18693     7259 
348000000   -1339.7565    2140.2608    6520.0134   -527.84059    4007.8579    312.52027     7264 
349000000    -1308.794    2169.5243    6541.8589   -456.92768     3935.246    313.56738     7262 
350000000   -1355.1422    2216.1035    6444.4069    -454.4037    4025.6494    308.89626     7262 
351000000   -1371.4974    2121.4962    6542.2726     -501.471    3994.4646    313.58721     7262 
352000000   -1347.6569    2227.4007    6468.3368   -512.71274    4087.7704    310.04328     7257 
353000000    -1356.573    2097.8495     6515.822    -538.2498    3992.6723    312.31937     7262 
354000000   -1422.1231    2035.8109    6456.9139   -564.49198     4022.426    309.49576     7262 
355000000   -1366.7017    2173.2399     6412.007   -496.37148     4036.313    307.34326     7261 
356000000   -1319.2877    2168.0386    6517.3114   -523.30324    4010.6296    312.39076     7261 
357000000   -1329.6534    2128.3134     6313.761    -512.2454    3970.2122    302.63409     7259 
358000000   -1354.9547    2062.1164    6385.3674   -573.66615    3990.7372    306.06636     7267 
359000000   -1360.2734    2216.8982    6340.7821    -505.4321    4082.6038    303.92927     7263 
360000000   -1304.1278    2322.4579    6372.6487   -455.38986    4081.9756    305.45672     7258 
361000000    -1317.454    2261.0302    6441.9198   -482.58218    4061.0664    308.77705     7258 
362000000   -1322.6017    2206.7974    6545.8192   -485.21527    4014.6144    313.75721     7262 
363000000     -1329.01    2168.4193     6500.914   -495.95173    3993.3811    311.60479     7264 
364000000   -1328.2093    2284.5468     6517.447   -479.82504    4092.5811    312.39726     7266 
365000000   -1347.4541    2131.5892    6472.6788   -534.95859    4014.0019    310.25141     7266 
366000000   -1308.0484    2125.8524    6514.5442   -541.60788    3975.5086    312.25812     7261 
367000000   -1338.9927    2167.6129    6489.2802    -490.9453    3997.5509    311.04716     7259 
368000000   -1316.2601    2231.2332    6423.1505   -495.33591    4042.8293    307.87739     7263 
369000000   -1335.9771    2123.1888     6393.112   -552.62349    4011.7893    306.43758     7263 
370000000   -1290.6793    2182.6748    6490.1875   -493.65735    3967.0114    311.09064     7259 
371000000    -1312.342    2246.7346    6542.3621   -468.64909    4027.7257     313.5915     7256 
372000000   -1337.9711    2180.1587    6442.4052   -490.45906    4008.5889    308.80032     7257 
373000000   -1319.5068     2100.907    6405.9289   -550.79616    3971.2099    307.05192     7265 
374000000   -1287.4034    2254.0996    6559.5277   -484.56254    4026.0656    314.41429     7259 
375000000   -1273.6683    2144.1051    6449.8055   -488.13652    3905.9099    309.15504     7263 
376000000   -1294.1897    2353.6209    6431.7042   -414.84162    4062.6522    308.28739     7259 
377000000    -1325.556    2216.4694    6468.1002   -468.21887    4010.2443    310.03194     7255 
378000000   -1337.7091    2098.7915    6516.4155   -505.66248     3942.163    312.34782     7260 
379000000   -1322.8649    2295.0048    6337.0063   -413.00154    4030.8712    303.74829     7256 
380000000   -1310.5235    2222.5292    6454.0623   -438.05341    3971.1061    309.35908     7253 
381000000   -1261.0201    2245.3338    6400.6748   -440.38862    3946.7425    306.80008     7261 
382000000   -1290.1539    2138.3628    6498.0879   -588.27218     4016.789    311.46933     7267 
383000000    -1293.569    2187.7632    6465.6104   -541.90904    4023.2412     309.9126     7266 
384000000   -1352.0642    2161.2578    6559.4686   -494.02565    4007.3476    314.41146     7258 
385000000   -1323.9835    2136.8393    6633.3666   -563.16754    4023.9903    317.95357     7263 
386000000   -1365.6298    2222.9791    6450.6768   -433.46198    4022.0708     309.1968     7261 
387000000    -1361.959    2172.2865    6499.3792   -495.48781    4029.7333    311.53122     7257 
388000000   -1339.4748    2160.5547    6438.1676   -504.48944    4004.5189     308.5972     7258 
389000000   -1335.7283    2286.8969    6478.4437   -464.18131    4086.8065    310.52773     7264 
390000000   -1361.5814    2120.3361    6554.1981   -527.62216    4009.5396    314.15883     7264 
391000000   -1356.2054    2122.3668    6487.2763   -496.26645    3974.8386     310.9511     7260 
392000000   -1388.1216    2185.0929    6494.4601   -434.38533    4007.5998    311.29544     7255 
393000000   -1427.3351    2147.9039    6568.3235   -485.43921    4060.6782    314.83589     7256 
394000000   -1388.1367    2102.5781    6382.6344   -485.07162    3975.7864    305.93536     7261 
395000000   -1339.7047    2161.3246    6437.0939   -466.61175     3967.641    308.54574     7258 
396000000   -1376.8235    2251.3232    6417.3692   -431.08207    4059.2288    307.60028     7262 
397000000   -1346.3337    2148.1531    6420.4947   -542.47268    4036.9595    307.75009     7262 
398000000   -1374.2778    2208.3896    6461.0538   -430.56892    4013.2364     309.6942     7261 
399000000   -1353.9932    2103.0036    6443.9968   -504.82815    3961.8249    308.87661     7265 
400000000   -1352.4182    2229.5522    6465.7874   -484.12214    4066.0926    309.92108     7260 
Loop time of 19333.4 on 14 procs for 100000000 steps with 7000 atoms

Performance: 13406.841 ns/day, 0.002 hours/ns, 5172.393 timesteps/s
99.5% CPU use with 14 MPI tasks x no OpenMP threads

MPI task timing breakdown:
Section |  min time  |  avg time  |  max time  |%varavg| %total
---------------------------------------------------------------
Pair    | 2966.6     | 3573.6     | 4200.8     | 562.2 | 18.48
Bond    | 1127.9     | 1151.8     | 1185.5     |  54.6 |  5.96
Neigh   | 3369.8     | 3397.6     | 3436.4     |  37.2 | 17.57
Comm    | 5704.9     | 6325.2     | 7037       | 516.5 | 32.72
Output  | 0.46681    | 0.46686    | 0.46708    |   0.0 |  0.00
Modify  | 3937.7     | 3977.2     | 4033.3     |  40.5 | 20.57
Other   |            | 907.7      |            |       |  4.69

Nlocal:    500 ave 522 max 477 min
Histogram: 2 1 1 2 0 1 2 2 1 2
Nghost:    591.143 ave 752 max 358 min
Histogram: 2 0 1 2 0 2 1 1 1 4
Neighs:    5010.36 ave 6017 max 4373 min
Histogram: 2 3 1 3 0 1 2 1 0 1

Total # of neighbors = 70145
Ave neighs/atom = 10.0207
Ave special neighs/atom = 7.36571
Neighbor list builds = 6166517
Dangerous builds = 0
write_restart final_state_${fName}.restart
write_restart final_state_Run2_S10N03_rlx.restart
write_data final_state_${fName}.DATA
write_data final_state_Run2_S10N03_rlx.DATA
Total wall time: 5:22:13
