
units           real
boundary p p p
atom_style      full

read_restart final_state_Relax_Es_10kT_Ens_0.3kT.restart
  restoring atom style full from restart
  orthogonal box = (-500 -500 -500) to (500 500 500)
  1 by 2 by 7 MPI processor grid
  restoring pair style lj/cut from restart
  restoring bond style hybrid from restart
  restoring angle style cosine from restart
  7000 atoms
  7256 bonds
  6600 angles
  3 = max # of 1-2 neighbors
  4 = max # of 1-3 neighbors
  8 = max # of 1-4 neighbors
  16 = max # of special neighbors
  special bonds CPU = 0.0164414 secs
  read_restart CPU = 0.179147 secs

change_box all x final -500.0 500.0 y final -500.0 500.0 z final -500.0 500.0
  orthogonal box = (-500 -500 -500) to (500 500 500)
  orthogonal box = (-500 -500 -500) to (500 500 500)
  orthogonal box = (-500 -500 -500) to (500 500 500)

neighbor 1.9 bin
neigh_modify every 1 delay 1 check yes

angle_style  cosine
angle_coeff   *  2  # K (energy unit)

bond_style 		 hybrid harmonic harmonic/shift/cut
bond_coeff   1   harmonic 3   10
bond_coeff   2   harmonic 3   10
bond_coeff   3   harmonic/shift/cut 5.922   11.22   12.72


pair_style lj/cut 25

pair_coeff  * * 0.178 10 25

special_bonds lj  0 1 1 angle yes
  3 = max # of 1-2 neighbors
  4 = max # of 1-3 neighbors
  8 = max # of 1-4 neighbors
  16848 = # of 1-3 neighbors before angle trim
  13200 = # of 1-3 neighbors after angle trim
  16 = max # of special neighbors
  special bonds CPU = 0.00165728 secs

variable t equal step
variable steps equal 100000000
variable dt_thermo equal 1000000
variable dt_movie equal 5000000
variable dt_restart equal 10000000

group rxnSites type 1 3
1000 atoms in group rxnSites

# fix ID group-ID(atom-types) bond/create Nevery itype jtype Rmin bondtype (prob values = fraction seed) (iparam maxbond newType)
fix bondc rxnSites bond/create/random 20 1 3 12.72 3 prob 1 ${seed} iparam 1 1 jparam 1 3
fix bondc rxnSites bond/create/random 20 1 3 12.72 3 prob 1 859773 iparam 1 1 jparam 1 3

# fix ID group-ID bond/break Nevery bondtype Rmax keyword values ...
fix bondbr rxnSites bond/break 20 3 12.72 prob 1 ${seed}
fix bondbr rxnSites bond/break 20 3 12.72 prob 1 859773

variable frmbnd equal f_bondc[2]
variable brkbnd equal f_bondbr[2]
fix saveBond all print ${dt_thermo} "$t ${frmbnd} ${brkbnd}" file BondData_${fName}.dat screen no
fix saveBond all print 1000000 "$t ${frmbnd} ${brkbnd}" file BondData_${fName}.dat screen no
fix saveBond all print 1000000 "$t ${frmbnd} ${brkbnd}" file BondData_Run6_S10N03_rlx.dat screen no

thermo_style    custom step epair pe ke ebond eangle temp bonds
thermo          ${dt_thermo}
thermo          1000000
fix saveThermo all print ${dt_thermo} "$t $(temp) $(ke) $(pe) $(epair) $(ebond) $(eangle) $(bonds)" file Thermo_${fName}.dat title "# Steps Temp KinEng PotEng Epair Ebond Eangle Bonds" screen no
fix saveThermo all print 1000000 "$t $(temp) $(ke) $(pe) $(epair) $(ebond) $(eangle) $(bonds)" file Thermo_${fName}.dat title "# Steps Temp KinEng PotEng Epair Ebond Eangle Bonds" screen no
fix saveThermo all print 1000000 "$t $(temp) $(ke) $(pe) $(epair) $(ebond) $(eangle) $(bonds)" file Thermo_Run6_S10N03_rlx.dat title "# Steps Temp KinEng PotEng Epair Ebond Eangle Bonds" screen no

############################ Langevin Dynamics ###############################
fix fxlan all langevin $T $T 500 ${seed}
fix fxlan all langevin 310 $T 500 ${seed}
fix fxlan all langevin 310 310 500 ${seed}
fix fxlan all langevin 310 310 500 859773
fix fxnve all nve

comm_style tiled
fix fxbal all balance 1000 1.1 rcb # load balance for spatially heterogeneous system

timestep 30

dump coor all custom ${dt_movie} traj_${fName}.dump id type mol mass x y z xu yu zu
dump coor all custom 5000000 traj_${fName}.dump id type mol mass x y z xu yu zu
dump coor all custom 5000000 traj_Run6_S10N03_rlx.dump id type mol mass x y z xu yu zu


restart ${dt_restart} ${fName}_tp_*.restart
restart 10000000 ${fName}_tp_*.restart
restart 10000000 Run6_S10N03_rlx_tp_*.restart
run ${steps}
run 100000000
Neighbor list info ...
  update every 1 steps, delay 1 steps, check yes
  max neighbors/atom: 2000, page size: 100000
  master list distance cutoff = 26.9
  ghost atom cutoff = 26.9
  binsize = 13.45, bins = 75 75 75
  2 neighbor lists, perpetual/occasional/extra = 1 1 0
  (1) pair lj/cut, perpetual
      attributes: half, newton on
      pair build: half/bin/newton
      stencil: half/bin/3d/newton
      bin: standard
  (2) fix bond/create/random, occasional, copy from (1)
      attributes: half, newton on
      pair build: copy
      stencil: none
      bin: none
Per MPI rank memory allocation (min/avg/max) = 10.32 | 10.76 | 11.44 Mbytes
Step E_pair PotEng KinEng E_bond E_angle Temp Bonds 
300000000   -1296.9182    2246.5884    6491.2915   -492.70605    4036.2127    311.14356     7256 
301000000   -1279.4492    2235.0882    6423.0699   -467.29062    3981.8281    307.87353     7256 
302000000   -1282.4058    2161.3019     6443.262   -501.07442    3944.7821    308.84139     7255 
303000000   -1302.5667    2327.8601    6512.7086   -412.23512     4042.662    312.17014     7254 
304000000   -1314.8578     2124.745     6448.208   -541.78603    3981.3888    309.07846     7256 
305000000   -1295.0317    2237.6847    6526.0329    -477.5765    4010.2929     312.8088     7257 
306000000   -1286.1899    2262.5493    6313.6577   -482.69617    4031.4353    302.62914     7258 
307000000   -1265.4047    2268.2091    6461.0373   -486.56235    4020.1762     309.6934     7257 
308000000   -1273.9738    2174.2317    6567.4036   -502.23826    3950.4438     314.7918     7257 
309000000   -1348.3594    2184.6098    6434.7099   -474.87274    4007.8419    308.43146     7260 
310000000   -1350.4927    2192.2743    6413.6042   -464.52531    4007.2923    307.41982     7261 
311000000   -1299.1932    2155.7384    6494.2217   -500.80136     3955.733    311.28401     7261 
312000000   -1351.6741    2115.1086    6445.3305   -512.68296    3979.4657    308.94054     7264 
313000000   -1356.6683    2082.8223    6503.5148   -546.93986    3986.4305    311.72945     7264 
314000000    -1331.288    2201.3975    6391.4114   -493.57248     4026.258    306.35606     7266 
315000000   -1343.2946    2185.7091    6550.3587   -457.26639    3986.2701     313.9748     7263 
316000000    -1333.944    2238.8073     6403.726   -440.75657    4013.5078    306.94633     7259 
317000000   -1381.0058     2073.681    6395.0603   -530.70882    3985.3956    306.53096     7268 
318000000   -1395.9654    2098.8309    6443.8118   -456.25898    3951.0552    308.86774     7268 
319000000   -1375.1758    2142.0339    6484.9658   -496.87994    4014.0896    310.84036     7263 
320000000   -1387.0849    2028.9792    6557.4172   -550.02902    3966.0932    314.31313     7263 
321000000   -1355.2327     2093.166    6347.7129   -558.89094    4007.2896    304.26149     7266 
322000000   -1299.7013    2154.8452     6459.106   -516.73656     3971.283    309.60083     7265 
323000000   -1354.9948     2113.947    6488.0381   -587.63168    4056.5735    310.98762     7268 
324000000   -1381.5941    2107.9734     6320.562   -481.38819    3970.9558    302.96008     7264 
325000000   -1367.1968    2041.2931     6435.857   -507.89393    3916.3838    308.48645     7266 
326000000   -1406.8286    2098.6613    6504.4631   -565.68419    4071.1741    311.77491     7269 
327000000   -1417.4647    2104.1232    6408.0204   -483.62797    4005.2158    307.15217     7265 
328000000   -1363.3704    2057.4807     6495.704   -551.13598     3971.987    311.35506     7270 
329000000   -1369.5978    2111.2733     6519.659   -493.06005    3973.9311    312.50329     7272 
330000000   -1423.1793    2058.0286    6476.6953   -565.34827    4046.5562    310.44393     7269 
331000000   -1339.8033    2055.7339    6445.0877   -573.69455    3969.2318     308.9289     7270 
332000000   -1349.3812    2148.4685    6375.6093   -481.16033      3979.01    305.59863     7269 
333000000   -1302.9193    2170.1209    6314.7804   -499.45226    3972.4924    302.68295     7265 
334000000   -1316.1639    2129.7395    6407.6917   -557.87839    4003.7819    307.13642     7264 
335000000   -1294.3867    2208.2122    6427.2211   -472.17148    3974.7704    308.07251     7261 
336000000   -1307.8272    2242.8117    6591.1252   -434.39319    3985.0321    315.92883     7262 
337000000    -1332.375    2165.4904    6447.1028   -457.11329    3954.9787    309.02549     7257 
338000000   -1318.0311    2211.2037    6493.0943   -437.49157    3966.7263    311.22997     7261 
339000000   -1326.6592    2170.7987    6514.6446   -441.48755    3938.9454    312.26293     7261 
340000000    -1369.686    2155.3508    6539.7151   -466.63661    3991.6734    313.46462     7262 
341000000   -1324.3999    2195.4323    6486.9198   -504.56397    4024.3962    310.93402     7263 
342000000   -1300.0541    2272.4793    6424.6264   -551.90124    4124.4347    307.94814     7263 
343000000   -1333.1518    2215.5822    6476.3046   -477.78963    4026.5237     310.4252     7265 
344000000   -1320.2952    2168.8282    6464.8994    -465.6637     3954.787    309.87852     7262 
345000000   -1319.8287    2280.5547    6377.9603   -488.94134    4089.3248    305.71132     7265 
346000000   -1374.7514    2175.2685    6463.3613   -442.97587    3992.9959     309.8048     7264 
347000000   -1350.7317    2096.0339    6553.9435   -554.09052    4000.8561    314.14662     7263 
348000000   -1366.0274    2215.9354    6556.6316    -489.8137    4071.7765    314.27547     7261 
349000000   -1335.5813    2169.6168    6552.0493   -525.07365    4030.2717    314.05583     7264 
350000000    -1350.317    2208.8167     6511.796   -431.98935     3991.123    312.12639     7266 
351000000   -1373.5629    2221.9514    6510.8118   -483.91875    4079.4331    312.07922     7265 
352000000   -1359.6484    2162.3237    6511.0658   -527.32107    4049.2931    312.09139     7265 
353000000   -1305.2418    2149.1732    6569.5688   -514.47006    3968.8851    314.89558     7261 
354000000   -1285.0737    2308.3944    6406.4495   -429.46868    4022.9368    307.07687     7255 
355000000   -1296.0432    2201.6348    6449.2252   -475.75079    3973.4287    309.12722     7254 
356000000   -1304.8104    2252.1913    6454.9019   -488.23215    4045.2339    309.39932     7260 
357000000   -1326.8024    2136.7901    6456.7251     -535.339    3998.9314    309.48671     7263 
358000000   -1311.3095    2194.4018     6488.558   -540.07407    4045.7854    311.01253     7263 
359000000   -1258.8119    2230.8046    6440.5662   -514.51277    4004.1293    308.71217     7265 
360000000   -1296.6221     2208.814    6581.9848   -499.04328    4004.4793    315.49071     7266 
361000000   -1276.3764    2287.3337     6478.495   -474.63446    4038.3446    310.53019     7262 
362000000   -1289.3125    2316.7765    6446.7029   -473.97539    4080.0644    309.00632     7260 
363000000   -1276.0481    2088.3964    6422.9357   -615.93616    3980.3807     307.8671     7264 
364000000   -1272.5968    2295.8237    6448.7461   -450.05828    4018.4787    309.10425     7263 
365000000    -1300.516    2283.4628    6487.1153   -471.44803    4055.4269    310.94339     7265 
366000000   -1277.1176    2310.1963    6402.0775   -499.22532    4086.5392    306.86731     7263 
367000000   -1344.9903    2162.6304     6444.527   -548.92085    4056.5415    308.90202     7266 
368000000   -1328.4574     2243.766    6428.0679   -520.06037    4092.2838     308.1131     7263 
369000000   -1259.4094    2165.0714    6473.2516   -485.19673    3909.6775    310.27886     7261 
370000000   -1264.4054      2352.54    6606.3505   -464.26857     4081.214    316.65862     7262 
371000000   -1309.0913    2223.0586    6489.6755    -481.8813    4014.0312     311.0661     7262 
372000000   -1318.4379    2221.6001     6513.348   -485.95287    4025.9908    312.20078     7263 
373000000   -1299.8411    2198.3286    6371.9704   -522.93961    4021.1092    305.42421     7260 
374000000    -1297.495    2214.5647    6400.3944   -511.11508    4023.1748    306.78664     7263 
375000000   -1356.5818    2081.2007    6460.7599   -539.56362    3977.3461    309.68011     7264 
376000000   -1356.0368    2172.9934    6463.7435   -514.89693    4043.9271    309.82312     7262 
377000000   -1300.1909    2225.4183    6362.6223   -523.67626    4049.2855    304.97613     7263 
378000000   -1302.5488    2256.8047    6380.3538   -468.52941    4027.8829    305.82605     7259 
379000000   -1387.5735    2164.6789    6465.6798   -498.09485    4050.3473    309.91593     7261 
380000000   -1345.0556    2151.6083    6436.5229   -542.16058    4038.8244    308.51836     7264 
381000000   -1350.2028    2118.0365    6479.1944   -529.54615    3997.7855    310.56372     7265 
382000000   -1338.9144    2232.6941    6342.8823   -507.82585    4079.4344    304.02994     7263 
383000000   -1273.8637    2212.1977    6524.6158   -478.95284    3965.0142    312.74088     7257 
384000000   -1284.1141    2234.4707     6492.039   -501.93045    4020.5153    311.17939     7262 
385000000   -1265.2984    2276.2615    6551.6344    -455.8118    3997.3717    314.03594     7259 
386000000   -1244.3782    2353.4518    6427.7283   -367.90322    3965.7332    308.09682     7254 
387000000   -1268.5955    2332.7807    6428.2682   -446.19914    4047.5754     308.1227     7257 
388000000   -1277.8357    2278.8646    6464.9654   -487.42744    4044.1277    309.88168     7261 
389000000   -1308.6921    2246.6538    6553.4307   -511.57021    4066.9161    314.12204     7260 
390000000   -1263.6607    2153.4267    6570.0891   -548.19412    3965.2815    314.92052     7263 
391000000   -1274.5324    2345.1246    6391.4123   -422.44898    4042.1059     306.3561     7264 
392000000   -1238.2989    2150.0064    6442.7619   -560.28455    3948.5898    308.81742     7266 
393000000   -1332.4271    2179.3437    6483.2599   -550.90336    4062.6741    310.75859     7264 
394000000   -1276.0909    2242.1369    6419.1822   -474.56038    3992.7882    307.68718     7266 
395000000   -1309.1458    2192.4668    6392.2006    -485.3772    3986.9898    306.39389     7264 
396000000   -1404.4668    2087.2698    6506.6687   -488.03109    3979.7677    311.88063     7264 
397000000    -1342.209    2147.0564    6385.9877   -501.29046    3990.5559    306.09609     7269 
398000000   -1339.5068    2199.2792    6394.8502   -486.05066    4024.8367    306.52089     7265 
399000000   -1330.7269    2198.8486    6435.7487   -495.07814    4024.6537    308.48126     7260 
400000000   -1312.3485    2139.2552    6430.6909   -569.58856    4021.1923    308.23882     7262 
Loop time of 20672.6 on 14 procs for 100000000 steps with 7000 atoms

Performance: 12538.330 ns/day, 0.002 hours/ns, 4837.319 timesteps/s
99.5% CPU use with 14 MPI tasks x no OpenMP threads

MPI task timing breakdown:
Section |  min time  |  avg time  |  max time  |%varavg| %total
---------------------------------------------------------------
Pair    | 2941.2     | 3459.4     | 3888.3     | 448.5 | 16.73
Bond    | 1060.6     | 1138.2     | 1184.8     | 114.7 |  5.51
Neigh   | 3350.4     | 3377.6     | 3401.4     |  24.6 | 16.34
Comm    | 6476.5     | 6948.5     | 7991.8     | 448.3 | 33.61
Output  | 0.43176    | 0.43204    | 0.4323     |   0.0 |  0.00
Modify  | 4045.9     | 4180.7     | 4272.9     | 113.2 | 20.22
Other   |            | 1568       |            |       |  7.58

Nlocal:    500 ave 525 max 460 min
Histogram: 1 0 0 1 1 3 3 2 1 2
Nghost:    591.357 ave 797 max 389 min
Histogram: 3 1 2 0 1 0 1 3 1 2
Neighs:    4818.64 ave 5611 max 3084 min
Histogram: 1 0 0 1 2 1 0 2 3 4

Total # of neighbors = 67461
Ave neighs/atom = 9.63729
Ave special neighs/atom = 7.37314
Neighbor list builds = 6166660
Dangerous builds = 0
write_restart final_state_${fName}.restart
write_restart final_state_Run6_S10N03_rlx.restart
write_data final_state_${fName}.DATA
write_data final_state_Run6_S10N03_rlx.DATA
Total wall time: 5:44:33
