
units           real
boundary p p p
atom_style      full

read_restart final_state_Relax_Es_10kT_Ens_0.3kT.restart
  restoring atom style full from restart
  orthogonal box = (-500 -500 -500) to (500 500 500)
  1 by 2 by 7 MPI processor grid
  restoring pair style lj/cut from restart
  restoring bond style hybrid from restart
  restoring angle style cosine from restart
  7000 atoms
  7256 bonds
  6600 angles
  3 = max # of 1-2 neighbors
  4 = max # of 1-3 neighbors
  8 = max # of 1-4 neighbors
  16 = max # of special neighbors
  special bonds CPU = 0.0011581 secs
  read_restart CPU = 0.0108202 secs

change_box all x final -500.0 500.0 y final -500.0 500.0 z final -500.0 500.0
  orthogonal box = (-500 -500 -500) to (500 500 500)
  orthogonal box = (-500 -500 -500) to (500 500 500)
  orthogonal box = (-500 -500 -500) to (500 500 500)

neighbor 1.9 bin
neigh_modify every 1 delay 1 check yes

angle_style  cosine
angle_coeff   *  2  # K (energy unit)

bond_style 		 hybrid harmonic harmonic/shift/cut
bond_coeff   1   harmonic 3   10
bond_coeff   2   harmonic 3   10
bond_coeff   3   harmonic/shift/cut 5.922   11.22   12.72


pair_style lj/cut 25

pair_coeff  * * 0.178 10 25

special_bonds lj  0 1 1 angle yes
  3 = max # of 1-2 neighbors
  4 = max # of 1-3 neighbors
  8 = max # of 1-4 neighbors
  16848 = # of 1-3 neighbors before angle trim
  13200 = # of 1-3 neighbors after angle trim
  16 = max # of special neighbors
  special bonds CPU = 0.00100771 secs

variable t equal step
variable steps equal 100000000
variable dt_thermo equal 1000000
variable dt_movie equal 5000000
variable dt_restart equal 10000000

group rxnSites type 1 3
1000 atoms in group rxnSites

# fix ID group-ID(atom-types) bond/create Nevery itype jtype Rmin bondtype (prob values = fraction seed) (iparam maxbond newType)
fix bondc rxnSites bond/create/random 20 1 3 12.72 3 prob 1 ${seed} iparam 1 1 jparam 1 3
fix bondc rxnSites bond/create/random 20 1 3 12.72 3 prob 1 173643 iparam 1 1 jparam 1 3

# fix ID group-ID bond/break Nevery bondtype Rmax keyword values ...
fix bondbr rxnSites bond/break 20 3 12.72 prob 1 ${seed}
fix bondbr rxnSites bond/break 20 3 12.72 prob 1 173643

variable frmbnd equal f_bondc[2]
variable brkbnd equal f_bondbr[2]
fix saveBond all print ${dt_thermo} "$t ${frmbnd} ${brkbnd}" file BondData_${fName}.dat screen no
fix saveBond all print 1000000 "$t ${frmbnd} ${brkbnd}" file BondData_${fName}.dat screen no
fix saveBond all print 1000000 "$t ${frmbnd} ${brkbnd}" file BondData_Run7_S10N03_rlx.dat screen no

thermo_style    custom step epair pe ke ebond eangle temp bonds
thermo          ${dt_thermo}
thermo          1000000
fix saveThermo all print ${dt_thermo} "$t $(temp) $(ke) $(pe) $(epair) $(ebond) $(eangle) $(bonds)" file Thermo_${fName}.dat title "# Steps Temp KinEng PotEng Epair Ebond Eangle Bonds" screen no
fix saveThermo all print 1000000 "$t $(temp) $(ke) $(pe) $(epair) $(ebond) $(eangle) $(bonds)" file Thermo_${fName}.dat title "# Steps Temp KinEng PotEng Epair Ebond Eangle Bonds" screen no
fix saveThermo all print 1000000 "$t $(temp) $(ke) $(pe) $(epair) $(ebond) $(eangle) $(bonds)" file Thermo_Run7_S10N03_rlx.dat title "# Steps Temp KinEng PotEng Epair Ebond Eangle Bonds" screen no

############################ Langevin Dynamics ###############################
fix fxlan all langevin $T $T 500 ${seed}
fix fxlan all langevin 310 $T 500 ${seed}
fix fxlan all langevin 310 310 500 ${seed}
fix fxlan all langevin 310 310 500 173643
fix fxnve all nve

comm_style tiled
fix fxbal all balance 1000 1.1 rcb # load balance for spatially heterogeneous system

timestep 30

dump coor all custom ${dt_movie} traj_${fName}.dump id type mol mass x y z xu yu zu
dump coor all custom 5000000 traj_${fName}.dump id type mol mass x y z xu yu zu
dump coor all custom 5000000 traj_Run7_S10N03_rlx.dump id type mol mass x y z xu yu zu


restart ${dt_restart} ${fName}_tp_*.restart
restart 10000000 ${fName}_tp_*.restart
restart 10000000 Run7_S10N03_rlx_tp_*.restart
run ${steps}
run 100000000
Neighbor list info ...
  update every 1 steps, delay 1 steps, check yes
  max neighbors/atom: 2000, page size: 100000
  master list distance cutoff = 26.9
  ghost atom cutoff = 26.9
  binsize = 13.45, bins = 75 75 75
  2 neighbor lists, perpetual/occasional/extra = 1 1 0
  (1) pair lj/cut, perpetual
      attributes: half, newton on
      pair build: half/bin/newton
      stencil: half/bin/3d/newton
      bin: standard
  (2) fix bond/create/random, occasional, copy from (1)
      attributes: half, newton on
      pair build: copy
      stencil: none
      bin: none
Per MPI rank memory allocation (min/avg/max) = 10.32 | 10.76 | 11.44 Mbytes
Step E_pair PotEng KinEng E_bond E_angle Temp Bonds 
300000000   -1296.9182    2246.5884    6491.2915   -492.70605    4036.2127    311.14356     7256 
301000000    -1334.117    2176.2244     6486.489   -500.64012    4010.9815    310.91337     7258 
302000000   -1353.9587    2186.2273    6426.2977   -474.23667    4014.4227    308.02825     7257 
303000000   -1317.3787    2231.0831    6476.1078   -457.86179    4006.3236    310.41577     7256 
304000000   -1297.8953    2245.2802    6467.7611   -440.03287    3983.2084    310.01569     7255 
305000000   -1341.6961    2281.2953    6392.7159   -399.41208    4022.4034    306.41859     7252 
306000000   -1296.1151     2162.583    6549.5792   -493.08499    3951.7831    313.93743     7255 
307000000   -1320.6595    2250.4641    6431.8966   -415.75917    3986.8828    308.29662     7258 
308000000   -1286.1482    2191.6688    6533.2096   -467.19612     3945.013     313.1528     7258 
309000000   -1344.5405    2195.4336    6417.4944   -461.99682    4001.9709    307.60628     7256 
310000000   -1305.5952    2238.8871    6540.0266   -452.48967    3996.9719    313.47956     7258 
311000000   -1263.6344    2172.5922    6493.7242   -476.05022    3912.2769    311.26017     7260 
312000000   -1282.4562    2168.7087    6487.7396   -455.83033    3906.9953    310.97331     7253 
313000000   -1284.2135     2163.601    6436.8465   -490.44414    3938.2586    308.53388     7252 
314000000   -1316.9636    2147.6596    6522.0933   -415.45944    3880.0827    312.61997     7246 
315000000   -1310.9194    2239.8309    6461.4477   -443.88421    3994.6345    309.71307     7255 
316000000   -1364.6186     2143.743    6459.1548   -505.12974    4013.4914    309.60317     7264 
317000000   -1372.5599     2067.344    6425.6429   -549.40203     3989.306    307.99686     7262 
318000000   -1371.9221    2131.5527    6512.5437   -421.09734    3924.5722    312.16223     7251 
319000000   -1295.4666    2287.7153    6542.3276   -391.36419    3974.5461    313.58984     7255 
320000000   -1289.4044    2285.0045     6398.695   -436.98229    4011.3912    306.70518     7253 
321000000   -1331.0037     2202.562    6374.4355   -418.43362    3951.9993    305.54236     7250 
322000000   -1275.3773    2257.2756    6417.8521   -450.91057    3983.5635    307.62343     7256 
323000000   -1282.7344    2333.9217    6535.8435   -438.49185    4055.1479    313.27905     7253 
324000000   -1242.9865    2377.0642    6469.7101   -406.59425     4026.645    310.10911     7250 
325000000   -1290.1203    2251.8906    6471.6976   -440.16867    3982.1796    310.20438     7255 
326000000   -1304.0121    2216.9068     6590.402   -461.84462    3982.7636    315.89417     7260 
327000000   -1288.0722    2208.7488    6532.0085   -493.72967    3990.5506    313.09523     7254 
328000000   -1273.1703    2143.0758    6327.2485   -489.03216    3905.2783    303.28058     7251 
329000000   -1338.1173      2222.43    6463.9155   -448.84328    4009.3906    309.83136     7253 
330000000    -1315.793    2106.4797    6499.4667   -518.06056    3940.3332    311.53542     7259 
331000000   -1331.9496    2235.0257    6434.8734    -491.6564    4058.6317     308.4393     7260 
332000000   -1316.1389     2162.217    6452.1623   -510.81126    3989.1671      309.268     7256 
333000000   -1319.5745    2276.4543    6481.9294   -445.71118      4041.74    310.69481     7254 
334000000   -1304.8346    2192.0405    6493.4212   -524.65012    4021.5252    311.24564     7263 
335000000   -1316.3526    2232.1938    6457.7561   -442.97258     3991.519    309.53613     7257 
336000000   -1303.8651    2195.5425    6528.7015   -524.81782    4024.2254    312.93671     7261 
337000000   -1313.0078    2206.0925    6550.6926   -444.30393    3963.4042     313.9908     7259 
338000000   -1313.9032    2237.2118    6495.2278   -464.87554    4015.9905    311.33224     7261 
339000000   -1364.3127    2197.4503    6526.3572    -457.6866    4019.4497    312.82435     7267 
340000000   -1339.7775    2137.6463    6426.8329   -520.34006    3997.7639     308.0539     7269 
341000000    -1374.026    2066.9145    6482.5117   -552.14895    3993.0895    310.72273     7267 
342000000   -1345.2344    2114.1755    6403.3333   -522.41782    3981.8276    306.92751     7268 
343000000   -1333.0967    2109.9809     6434.281   -513.53705    3956.6147    308.41091     7265 
344000000   -1383.5729    2051.1566    6445.9648    -530.8508    3965.5803    308.97094     7265 
345000000   -1288.7835    2169.5432    6512.9608   -453.87355    3912.2002    312.18222     7259 
346000000    -1344.839    2112.9141    6459.3938   -519.42433    3977.1774    309.61462     7265 
347000000   -1357.4587    2230.7493    6388.3059   -448.93138    4037.1394    306.20721     7264 
348000000   -1387.8824    2099.1085    6399.2077   -572.49941    4059.4903    306.72976     7268 
349000000   -1368.9781    2150.5992    6403.5126   -512.02179     4031.599     306.9361     7263 
350000000    -1378.517    2071.8946     6477.425   -550.67575    4001.0873    310.47891     7266 
351000000   -1367.6141    2037.0836    6427.9839   -542.29528     3946.993    308.10907     7269 
352000000    -1339.604    2180.7498     6365.601   -511.41047    4031.7642    305.11891     7265 
353000000   -1356.9138    2237.7754    6466.5888   -423.34861    4018.0378     309.9595     7263 
354000000   -1373.1708    2210.2406    6399.5684   -458.56297    4041.9744    306.74705     7262 
355000000   -1362.6985    2034.3119    6426.2394   -579.48311    3976.4935    308.02545     7265 
356000000   -1340.0807    2018.0994    6487.5709   -568.62655    3926.8067    310.96522     7268 
357000000   -1374.5422    2126.6575    6428.9066   -516.56201    4017.7618     308.1533     7264 
358000000    -1379.961    2277.1714    6596.5232   -414.86235    4071.9947    316.18757     7259 
359000000   -1350.0303    2175.9806    6427.7549   -429.90247    3955.9134     308.0981     7257 
360000000   -1376.1664    2117.9237    6489.2514   -462.51976    3956.6099    311.04577     7260 
361000000   -1394.0249    2193.9064    6494.5917   -443.22401    4031.1553    311.30175     7259 
362000000    -1356.289    2072.8964    6518.3173   -524.96726    3954.1527    312.43897     7262 
363000000   -1314.2015    2191.5174    6513.7697   -439.35055    3945.0694      312.221     7260 
364000000   -1367.6801    2131.9064    6448.1084    -512.7397    4012.3262    309.07369     7265 
365000000   -1415.0541    2091.4859    6550.5842   -524.41565    4030.9556    313.98561     7266 
366000000   -1386.8961    2083.6927    6461.4112    -520.1021    3990.6909    309.71133     7264 
367000000   -1358.1138    2145.0211    6545.9275   -474.65277    3977.7877     313.7624     7262 
368000000   -1347.2634    2156.2219    6469.8597   -465.02418    3968.5095    310.11628     7255 
369000000   -1361.2502    2133.5035    6407.4579   -518.40528    4013.1589    307.12521     7260 
370000000   -1327.0002    2187.8797    6408.7864   -490.10098    4004.9809    307.18889     7262 
371000000   -1377.9302    2133.4491      6463.96   -500.98652    4012.3658    309.83349     7261 
372000000   -1393.0226    2116.8282    6462.3149   -494.65814    4004.5089    309.75464     7263 
373000000   -1423.3179    2136.6222    6530.2124   -511.93483    4071.8749    313.00914     7263 
374000000   -1383.8823    2136.6326    6434.3562   -521.58771    4042.1026    308.41451     7266 
375000000   -1360.8566     2211.524    6461.1842   -489.31876    4061.6994    309.70044     7265 
376000000   -1370.1333    2110.9147    6406.6323   -517.70513    3998.7531    307.08564     7263 
377000000   -1337.4633    2182.0832    6510.9654   -485.29608    4004.8426    312.08658     7261 
378000000   -1358.3702    2108.8072    6456.3268   -546.64949    4013.8269    309.46762     7271 
379000000   -1339.8178     2057.462    6448.6585    -582.0285    3979.3083    309.10006     7273 
380000000   -1363.7556    2162.4497    6432.3335   -467.96753    3994.1728    308.31756     7264 
381000000   -1393.1541    2218.0976     6404.987   -372.23338    3983.4851    307.00677     7261 
382000000   -1352.4588    2164.0455    6480.7703   -493.32996    4009.8342    310.63925     7269 
383000000   -1361.8547    2033.4569     6460.013   -564.50561    3959.8173    309.64431     7267 
384000000   -1342.2498    2233.4164    6417.4631   -493.70032    4069.3665    307.60478     7262 
385000000   -1319.3308     2235.009     6494.619   -497.80964    4052.1495    311.30305     7262 
386000000   -1358.8642    2085.5614     6405.039   -561.54106    4005.9667    307.00926     7262 
387000000   -1351.6497    2166.8732    6431.7664   -497.48026    4016.0031    308.29038     7264 
388000000   -1356.3408    2121.8227    6396.1115   -461.86587    3940.0293    306.58135     7265 
389000000   -1340.5778    2406.3726    6444.3924   -430.60684    4177.5572    308.89557     7258 
390000000   -1352.0791    2080.4487    6500.1696   -507.47614    3940.0039    311.56911     7255 
391000000   -1361.3578    2252.0577    6413.8084   -420.61119    4034.0267    307.42961     7263 
392000000   -1367.4932    2084.9127    6613.5306   -553.49803    4005.9039    317.00278     7262 
393000000   -1390.2385    2074.9791    6474.9284   -496.25369    3961.4713    310.35924     7264 
394000000   -1357.4787    2168.4026    6418.6381   -452.70862    3978.5899     307.6611     7263 
395000000    -1388.474    2070.4302    6494.9265   -548.99525    4007.8994    311.31779     7263 
396000000   -1377.5008    2119.9007     6337.695   -547.60101    4045.0024     303.7813     7261 
397000000   -1314.8294    2096.4271     6522.313   -556.20202    3967.4585    312.63049     7262 
398000000    -1336.046    2144.6548    6499.0681   -511.34667    3992.0475    311.51631     7263 
399000000   -1410.0667    2125.8729    6450.8617   -505.95691    4041.8965    309.20566     7265 
400000000   -1319.2503    2107.3857    6570.5294    -559.6488    3986.2848    314.94163     7261 
Loop time of 17425.2 on 14 procs for 100000000 steps with 7000 atoms

Performance: 14875.017 ns/day, 0.002 hours/ns, 5738.818 timesteps/s
99.5% CPU use with 14 MPI tasks x no OpenMP threads

MPI task timing breakdown:
Section |  min time  |  avg time  |  max time  |%varavg| %total
---------------------------------------------------------------
Pair    | 3194.1     | 3639       | 4152.7     | 426.0 | 20.88
Bond    | 1157.8     | 1170.7     | 1188.9     |  27.7 |  6.72
Neigh   | 3385       | 3407.2     | 3441.1     |  28.6 | 19.55
Comm    | 4116.7     | 4789.9     | 5472.9     | 472.7 | 27.49
Output  | 0.41351    | 0.41355    | 0.41363    |   0.0 |  0.00
Modify  | 3629.1     | 3662       | 3770.1     |  59.6 | 21.02
Other   |            | 755.9      |            |       |  4.34

Nlocal:    500 ave 526 max 456 min
Histogram: 1 0 0 0 2 3 2 3 1 2
Nghost:    591.786 ave 792 max 364 min
Histogram: 1 2 2 0 2 1 1 1 1 3
Neighs:    4831.5 ave 5850 max 3632 min
Histogram: 2 0 0 2 2 2 2 2 1 1

Total # of neighbors = 67641
Ave neighs/atom = 9.663
Ave special neighs/atom = 7.36943
Neighbor list builds = 6166001
Dangerous builds = 0
write_restart final_state_${fName}.restart
write_restart final_state_Run7_S10N03_rlx.restart
write_data final_state_${fName}.DATA
write_data final_state_Run7_S10N03_rlx.DATA
Total wall time: 4:50:25
