
units           real
boundary p p p
atom_style      full

read_restart final_state_Relax_Es_10kT_Ens_0.3kT.restart
  restoring atom style full from restart
  orthogonal box = (-500 -500 -500) to (500 500 500)
  1 by 2 by 7 MPI processor grid
  restoring pair style lj/cut from restart
  restoring bond style hybrid from restart
  restoring angle style cosine from restart
  7000 atoms
  7256 bonds
  6600 angles
  3 = max # of 1-2 neighbors
  4 = max # of 1-3 neighbors
  8 = max # of 1-4 neighbors
  16 = max # of special neighbors
  special bonds CPU = 0.0208437 secs
  read_restart CPU = 0.174904 secs

change_box all x final -500.0 500.0 y final -500.0 500.0 z final -500.0 500.0
  orthogonal box = (-500 -500 -500) to (500 500 500)
  orthogonal box = (-500 -500 -500) to (500 500 500)
  orthogonal box = (-500 -500 -500) to (500 500 500)

neighbor 1.9 bin
neigh_modify every 1 delay 1 check yes

angle_style  cosine
angle_coeff   *  2  # K (energy unit)

bond_style 		 hybrid harmonic harmonic/shift/cut
bond_coeff   1   harmonic 3   10
bond_coeff   2   harmonic 3   10
bond_coeff   3   harmonic/shift/cut 5.922   11.22   12.72


pair_style lj/cut 25

pair_coeff  * * 0.178 10 25

special_bonds lj  0 1 1 angle yes
  3 = max # of 1-2 neighbors
  4 = max # of 1-3 neighbors
  8 = max # of 1-4 neighbors
  16848 = # of 1-3 neighbors before angle trim
  13200 = # of 1-3 neighbors after angle trim
  16 = max # of special neighbors
  special bonds CPU = 0.00181599 secs

variable t equal step
variable steps equal 100000000
variable dt_thermo equal 1000000
variable dt_movie equal 5000000
variable dt_restart equal 10000000

group rxnSites type 1 3
1000 atoms in group rxnSites

# fix ID group-ID(atom-types) bond/create Nevery itype jtype Rmin bondtype (prob values = fraction seed) (iparam maxbond newType)
fix bondc rxnSites bond/create/random 20 1 3 12.72 3 prob 1 ${seed} iparam 1 1 jparam 1 3
fix bondc rxnSites bond/create/random 20 1 3 12.72 3 prob 1 237351 iparam 1 1 jparam 1 3

# fix ID group-ID bond/break Nevery bondtype Rmax keyword values ...
fix bondbr rxnSites bond/break 20 3 12.72 prob 1 ${seed}
fix bondbr rxnSites bond/break 20 3 12.72 prob 1 237351

variable frmbnd equal f_bondc[2]
variable brkbnd equal f_bondbr[2]
fix saveBond all print ${dt_thermo} "$t ${frmbnd} ${brkbnd}" file BondData_${fName}.dat screen no
fix saveBond all print 1000000 "$t ${frmbnd} ${brkbnd}" file BondData_${fName}.dat screen no
fix saveBond all print 1000000 "$t ${frmbnd} ${brkbnd}" file BondData_Run9_S10N03_rlx.dat screen no

thermo_style    custom step epair pe ke ebond eangle temp bonds
thermo          ${dt_thermo}
thermo          1000000
fix saveThermo all print ${dt_thermo} "$t $(temp) $(ke) $(pe) $(epair) $(ebond) $(eangle) $(bonds)" file Thermo_${fName}.dat title "# Steps Temp KinEng PotEng Epair Ebond Eangle Bonds" screen no
fix saveThermo all print 1000000 "$t $(temp) $(ke) $(pe) $(epair) $(ebond) $(eangle) $(bonds)" file Thermo_${fName}.dat title "# Steps Temp KinEng PotEng Epair Ebond Eangle Bonds" screen no
fix saveThermo all print 1000000 "$t $(temp) $(ke) $(pe) $(epair) $(ebond) $(eangle) $(bonds)" file Thermo_Run9_S10N03_rlx.dat title "# Steps Temp KinEng PotEng Epair Ebond Eangle Bonds" screen no

############################ Langevin Dynamics ###############################
fix fxlan all langevin $T $T 500 ${seed}
fix fxlan all langevin 310 $T 500 ${seed}
fix fxlan all langevin 310 310 500 ${seed}
fix fxlan all langevin 310 310 500 237351
fix fxnve all nve

comm_style tiled
fix fxbal all balance 1000 1.1 rcb # load balance for spatially heterogeneous system

timestep 30

dump coor all custom ${dt_movie} traj_${fName}.dump id type mol mass x y z xu yu zu
dump coor all custom 5000000 traj_${fName}.dump id type mol mass x y z xu yu zu
dump coor all custom 5000000 traj_Run9_S10N03_rlx.dump id type mol mass x y z xu yu zu


restart ${dt_restart} ${fName}_tp_*.restart
restart 10000000 ${fName}_tp_*.restart
restart 10000000 Run9_S10N03_rlx_tp_*.restart
run ${steps}
run 100000000
Neighbor list info ...
  update every 1 steps, delay 1 steps, check yes
  max neighbors/atom: 2000, page size: 100000
  master list distance cutoff = 26.9
  ghost atom cutoff = 26.9
  binsize = 13.45, bins = 75 75 75
  2 neighbor lists, perpetual/occasional/extra = 1 1 0
  (1) pair lj/cut, perpetual
      attributes: half, newton on
      pair build: half/bin/newton
      stencil: half/bin/3d/newton
      bin: standard
  (2) fix bond/create/random, occasional, copy from (1)
      attributes: half, newton on
      pair build: copy
      stencil: none
      bin: none
Per MPI rank memory allocation (min/avg/max) = 10.32 | 10.76 | 11.44 Mbytes
Step E_pair PotEng KinEng E_bond E_angle Temp Bonds 
300000000   -1296.9182    2246.5884    6491.2915   -492.70605    4036.2127    311.14356     7256 
301000000   -1262.8456    2292.2218     6609.415    -429.7834    3984.8508    316.80551     7253 
302000000   -1279.3631    2276.8316    6387.4494   -437.50473    3993.6994    306.16616     7253 
303000000     -1274.22    2292.1643    6518.6334   -418.24607    3984.6304    312.45412     7252 
304000000    -1311.759    2268.2987    6457.7221   -454.08387    4034.1416     309.5345     7255 
305000000   -1315.0729    2270.3484    6516.4917   -463.61038    4049.0317    312.35147     7252 
306000000   -1338.2204    2238.0914     6501.229   -379.25273    3955.5645    311.61989     7253 
307000000   -1367.5612    2251.9151    6503.4413    -407.2682    4026.7446    311.72593     7254 
308000000   -1365.1845    2205.8024    6557.9134   -432.03934    4003.0263    314.33691     7252 
309000000   -1374.1644    2171.7585    6463.9805   -434.35557    3980.2784    309.83448     7249 
310000000   -1316.8206    2228.5277    6535.9853   -398.80952    3944.1578    313.28584     7249 
311000000   -1382.5588    2134.3342    6416.0065   -476.44288    3993.3359    307.53497     7258 
312000000   -1380.7573    2041.7806    6529.7337   -499.87479    3922.4127    312.98619     7261 
313000000   -1350.7232    2135.5172    6484.5254   -456.64215    3942.8826    310.81924     7260 
314000000   -1389.3429    2151.0399    6454.8745   -468.04398    4008.4268      309.398     7259 
315000000   -1392.7199    2095.6424    6395.4487   -480.50048    3968.8627    306.54958     7260 
316000000   -1360.5819    2163.2394    6549.6557   -449.24111    3973.0624     313.9411     7259 
317000000   -1382.2702    1997.3034    6339.5399   -511.87237    3891.4459    303.86973     7259 
318000000   -1386.7163    2158.3228     6354.447   -462.50372    4007.5428    304.58427     7257 
319000000   -1347.6331    2129.3902    6466.5407   -525.80689    4002.8301     309.9572     7261 
320000000   -1340.1895    2241.6277    6517.1367   -391.14758    3972.9648    312.38238     7257 
321000000   -1305.7711    2076.2413    6430.1005   -553.99138    3936.0037    308.21052     7259 
322000000   -1324.2896    2139.5492    6547.0805   -533.05718     3996.896    313.81766     7263 
323000000   -1313.8073    2211.9493    6530.0389   -500.09351    4025.8501    313.00082     7265 
324000000   -1340.7165    2029.8087    6513.6257   -585.85911    3956.3843    312.21409     7268 
325000000   -1370.3672    2078.4415    6440.9839   -557.00428     4005.813    308.73219     7270 
326000000   -1294.7474    2194.2925    6402.8846   -533.68631    4022.7262      306.906     7267 
327000000   -1355.6541      2104.29    6555.0277   -528.86066    3988.8048    314.19859     7267 
328000000    -1336.628     2250.468    6497.6654   -457.68818    4044.7841    311.44908     7264 
329000000   -1323.7269    2126.3429    6484.1783    -555.4448    4005.5146    310.80261     7263 
330000000   -1288.3786    2200.1689    6460.1284   -510.93275    3999.4802    309.64984     7266 
331000000   -1310.1976    2120.8326     6384.348   -527.20842    3958.2387    306.01749     7263 
332000000   -1338.6915    2134.6942    6490.8628    -542.5148    4015.9004    311.12301     7269 
333000000   -1306.1746    2114.5508    6499.4931   -550.72961     3971.455    311.53668     7265 
334000000   -1340.2182    2172.6926     6526.776   -532.03457    4044.9454    312.84442     7264 
335000000   -1343.7389     2133.211    6472.2982   -509.22627    3986.1762    310.23316     7271 
336000000   -1285.2278    2163.5679    6547.9434   -514.21362    3963.0093    313.85902     7267 
337000000   -1310.1481    2246.0527    6478.9462   -487.77367    4043.9744    310.55182     7269 
338000000   -1347.5309    2127.9794    6472.2287   -552.46144    4027.9718    310.22983     7268 
339000000   -1354.0069    2202.5657    6420.5021   -516.07514    4072.6478    307.75045     7266 
340000000   -1330.7667    2110.2576    6498.7316   -544.03601    3985.0603    311.50018     7267 
341000000   -1296.9208    2205.3527    6572.6465   -509.40059    4011.6741    315.04311     7265 
342000000    -1299.145    2213.9507    6505.6918   -499.98477    4013.0804     311.8338     7264 
343000000   -1296.3098    2067.7872     6507.319   -588.75564    3952.8527     311.9118     7270 
344000000   -1345.8975    2093.1124    6577.8955   -550.96613    3989.9761     315.2947     7271 
345000000   -1352.8261    2101.0294    6474.0583   -506.25051    3960.1061    310.31753     7268 
346000000   -1360.1036    2105.4161    6506.3237   -566.93436    4032.4541    311.86409     7267 
347000000   -1374.8004    2108.4835    6411.2078   -523.81262    4007.0966    307.30495     7261 
348000000   -1326.8015    2204.7837    6495.1285     -535.386    4066.9712    311.32748     7263 
349000000    -1277.502     2268.147     6569.275   -499.38327    4045.0323     314.8815     7258 
350000000   -1325.0857    2195.5403    6473.0449   -471.14788    3991.7738    310.26896     7256 
351000000   -1343.0814    2271.9959    6425.9114   -421.27992    4036.3572    308.00973     7263 
352000000   -1347.8516    2158.6478    6350.3354   -511.30772    4017.8071    304.38719     7259 
353000000   -1328.0132    2272.7593    6542.1362   -429.94274    4030.7152    313.58067     7261 
354000000   -1349.7997    2257.6379    6465.4516   -464.05548    4071.4932    309.90499     7266 
355000000   -1317.9658     2127.296    6523.7584   -487.64789    3932.9097    312.69978     7261 
356000000   -1332.9502    2253.4802    6476.9551   -477.41174    4063.8422    310.45638     7264 
357000000   -1333.7067     2131.015    6416.0385   -526.36209    3991.0838     307.5365     7262 
358000000   -1340.9409    2091.8522    6419.9402   -518.27821    3951.0713    307.72352     7268 
359000000   -1298.9669    2216.3886    6527.6841   -493.47712    4008.8325    312.88795     7264 
360000000   -1328.8424    2111.0537    6432.1729   -512.75323    3952.6493    308.30986     7262 
361000000   -1314.7916    2160.7018    6571.2462   -575.02187    4050.5153    314.97598     7267 
362000000   -1290.1876    2312.2049    6367.9422   -480.40636    4082.7988    305.23113     7268 
363000000    -1296.806    2265.9264    6467.2976   -474.53223    4037.2646    309.99347     7265 
364000000   -1357.1885    2121.3436    6531.7546    -502.8799     3981.412    313.08306     7267 
365000000   -1341.7074    2106.6613    6595.7178   -512.41724    3960.7859    316.14897     7263 
366000000   -1335.3539    2130.3783    6447.2759   -489.71062    3955.4429    309.03379     7262 
367000000   -1325.0347    2140.6485    6483.1261   -490.74095    3956.4241    310.75217     7266 
368000000   -1358.6388     2149.569    6382.4607   -526.17324    4034.3811    305.92703     7267 
369000000    -1347.732    2199.2156    6439.9948   -483.47657    4030.4242    308.68478     7268 
370000000   -1310.1442    2107.1981    6466.5363   -534.45889    3951.8012    309.95698     7267 
371000000   -1301.1273    2196.8235    6451.9233   -499.51107    3997.4619    309.25655     7264 
372000000    -1297.201    2214.8527    6410.9596   -530.70518    4042.7588    307.29305     7261 
373000000   -1296.8983    2295.3769    6430.4274   -463.16678     4055.442    308.22619     7257 
374000000   -1285.3545     2300.158     6404.583    -455.6904    4041.2029    306.98741     7261 
375000000    -1304.746    2189.7864    6383.0334   -475.10981    3969.6421    305.95449     7260 
376000000   -1244.4555    2253.7028    6527.2272    -459.1498    3957.3081    312.86605     7253 
377000000   -1275.1542      2265.37    6418.0752   -463.36494    4003.8892    307.63412     7261 
378000000   -1304.5065    2229.4102    6414.6237   -471.39642    4005.3131    307.46868     7263 
379000000   -1298.0754    2241.5588    6475.4788   -510.27265    4049.9069    310.38562     7264 
380000000   -1307.4467    2157.8923    6416.0637   -490.63665    3955.9757     307.5377     7257 
381000000   -1280.2006       2225.9    6385.4812   -520.03804    4026.1387    306.07181     7260 
382000000   -1233.7071    2169.8807     6400.543    -568.4151    3972.0029    306.79376     7259 
383000000    -1235.309    2299.1769    6537.2347   -444.07948    3978.5654    313.34573     7253 
384000000   -1255.3153    2437.3329    6551.0353   -434.37265    4127.0208    314.00723     7257 
385000000   -1269.9934    2314.6839    6451.6079   -474.61278    4059.2901    309.24143     7258 
386000000   -1256.5294    2239.6762    6458.8788   -472.57818    3968.7838    309.58994     7259 
387000000    -1276.942    2273.5341    6449.6904   -516.91813    4067.3943    309.14952     7257 
388000000   -1286.1081    2251.6424    6464.8952   -516.44895    4054.1994    309.87832     7261 
389000000   -1342.2018    2202.5313    6450.9061   -499.05227    4043.7853    309.20779     7266 
390000000   -1333.1793    2130.2784    6354.0653   -557.49159    4020.9493    304.56597     7268 
391000000   -1336.3927    2233.3552    6456.8308   -471.22327    4040.9712    309.49177     7263 
392000000   -1339.4626    2208.2495    6462.8942   -510.54614    4058.2583    309.78241     7259 
393000000   -1352.5529    2130.0474    6525.1235   -520.23593    4002.8363    312.76521     7261 
394000000   -1335.2137    2212.4838    6514.3968   -541.12318    4088.8207    312.25105     7259 
395000000   -1342.6088    2193.9112    6450.0867   -490.63025    4027.1503    309.16851     7262 
396000000   -1369.7121     2180.446    6439.0365   -487.82038    4037.9785    308.63885     7259 
397000000    -1381.303    2156.3064    6399.4451   -471.93545    4009.5448    306.74114     7266 
398000000   -1341.6059    2224.3469    6527.0958   -470.88436    4036.8372    312.85975     7257 
399000000   -1301.7375    2156.5843    6510.1971   -488.24538    3946.5672    312.04975     7264 
400000000   -1357.0132    2180.3295    6381.2913   -484.96802    4022.3107    305.87098     7262 
Loop time of 22535.4 on 14 procs for 100000000 steps with 7000 atoms

Performance: 11501.902 ns/day, 0.002 hours/ns, 4437.462 timesteps/s
99.5% CPU use with 14 MPI tasks x no OpenMP threads

MPI task timing breakdown:
Section |  min time  |  avg time  |  max time  |%varavg| %total
---------------------------------------------------------------
Pair    | 3079.2     | 3557.6     | 4172.9     | 502.4 | 15.79
Bond    | 1142.4     | 1163.2     | 1175.4     |  28.6 |  5.16
Neigh   | 3432.3     | 3471       | 3525.7     |  47.9 | 15.40
Comm    | 7373.2     | 8066.2     | 9284.1     | 591.1 | 35.79
Output  | 0.44965    | 0.44994    | 0.45018    |   0.0 |  0.00
Modify  | 4533.8     | 4573.2     | 4610.3     |  31.8 | 20.29
Other   |            | 1704       |            |       |  7.56

Nlocal:    500 ave 527 max 470 min
Histogram: 1 2 1 1 3 1 0 1 2 2
Nghost:    612.786 ave 766 max 374 min
Histogram: 1 0 0 2 2 2 0 3 2 2
Neighs:    4940.71 ave 6095 max 3771 min
Histogram: 1 1 0 3 2 1 3 2 0 1

Total # of neighbors = 69170
Ave neighs/atom = 9.88143
Ave special neighs/atom = 7.37314
Neighbor list builds = 6166656
Dangerous builds = 0
write_restart final_state_${fName}.restart
write_restart final_state_Run9_S10N03_rlx.restart
write_data final_state_${fName}.DATA
write_data final_state_Run9_S10N03_rlx.DATA
Total wall time: 6:15:36
